LAMMPS (19 Nov 2024 - Development - patch_2Jul2021-14588-g93bfae9507)
OMP_NUM_THREADS environment is not set. Defaulting to 1 thread. (src/comm.cpp:99)
  using 1 OpenMP thread(s) per MPI task
######### 3d Lennard-Jones for polymeric system #############
######## simulting polymer brush by "grafting from" approach##
##### study the effect of iniatior density embedded in the #### #### substrate on chain length disbribution and polydispersity###

units		lj
atom_style	atomic
boundary        p p p
########## configure the simulation setup ############
#rho is 0.016 before
variable        rho equal 2/(2*2^(1./6.))^3

variable        dimx equal 16
variable        dimy equal 7
variable        dimz equal 7

#variable        rho2 equal 6./(2*2^(1./6.))^3
variable        rho2 equal 18./(2)^3
# set up initial hard segment crystal structure
lattice	custom ${rho2}                 basis 0.01 0.51 0.51 basis 0.51 0.51 0.51                 basis 0.01 0.26 0.51                 basis 0.01 0.51 0.26                 basis 0.01 0.76 0.51                 basis 0.01 0.51 0.76                 basis 0.51 0.26 0.51                 basis 0.51 0.51 0.26                 basis 0.51 0.76 0.51                 basis 0.51 0.51 0.76                 basis 0.01 0.26 0.26                 basis 0.01 0.76 0.26                 basis 0.01 0.76 0.76                 basis 0.01 0.26 0.76                 basis 0.51 0.26 0.26                 basis 0.51 0.76 0.26                 basis 0.51 0.76 0.76                 basis 0.51 0.26 0.76
lattice	custom 2.25                 basis 0.01 0.51 0.51 basis 0.51 0.51 0.51                 basis 0.01 0.26 0.51                 basis 0.01 0.51 0.26                 basis 0.01 0.76 0.51                 basis 0.01 0.51 0.76                 basis 0.51 0.26 0.51                 basis 0.51 0.51 0.26                 basis 0.51 0.76 0.51                 basis 0.51 0.51 0.76                 basis 0.01 0.26 0.26                 basis 0.01 0.76 0.26                 basis 0.01 0.76 0.76                 basis 0.01 0.26 0.76                 basis 0.51 0.26 0.26                 basis 0.51 0.76 0.26                 basis 0.51 0.76 0.76                 basis 0.51 0.26 0.76
Lattice spacing in x,y,z = 2 2 2
region		box block  0  ${dimx}  2  ${dimy}  2  ${dimz}
region		box block  0  16  2  ${dimy}  2  ${dimz}
region		box block  0  16  2  7  2  ${dimz}
region		box block  0  16  2  7  2  7
# create hard segment atoms with chain in the middle #
region		middle block  6 10 5 6 5 6

create_box	9 box
Created orthogonal box = (0 4 4) to (32 14 14)
  1 by 1 by 1 MPI processor grid

#region		new block 2 3 2 3 5 ${dimz}

create_atoms	9 region box  basis 1 5 basis 2 5
Created 7200 atoms
  using lattice units in orthogonal box = (0 4 4) to (32 14 14)
  create_atoms CPU = 0.008 seconds
region		hollow block INF INF 3 8 3 8
delete_atoms	region hollow
Deleted 4608 atoms, new total = 2592
region		hollow2 block 0 11 INF INF INF INF
delete_atoms	region hollow2
Deleted 1782 atoms, new total = 810


create_atoms	9 region middle basis 1 1 basis 2 2 		basis 3 3 		basis 4 4 		basis 5 3 		basis 6 4 		basis 7 3 		basis 8 4 		basis 9 3 		basis 10 4 		basis 11 6 		basis 12 6 		basis 13 6 		basis 14 6 		basis 15 6 		basis 16 6 		basis 17 6 		basis 18 6
Created 72 atoms
  using lattice units in orthogonal box = (0 4 4) to (32 14 14)
  create_atoms CPU = 0.000 seconds
# create soft segment
region		middle5 block  0 6 5 6 5 6
create_atoms	9 region middle5 basis 1 7 basis 2 8
Created 108 atoms
  using lattice units in orthogonal box = (0 4 4) to (32 14 14)
  create_atoms CPU = 0.000 seconds

region		middle2 block  10 16 5 6 5 6
create_atoms	9 region middle2 basis 1 7 basis 2 8
Created 108 atoms
  using lattice units in orthogonal box = (0 4 4) to (32 14 14)
  create_atoms CPU = 0.000 seconds


#mass (soft segment = 1.0 / hard segment = 0.99 (0.11*9) / solvent = 0.16)
variable	mass5 equal 1.0
mass		* 1.0
mass		1 0.2
mass		2 0.2
mass		3 0.1
mass		4 0.1
mass		5 0.35

mass		6 0.1
mass		7 1.0
mass            8 1.0

###### randomly reset some of the bottom substrate atoms to radical atoms ####

group           patch4 type 4
16 atoms in group patch4
group		patch1 type 1
4 atoms in group patch1
group		patch2 type 2
4 atoms in group patch2
group		patch3 type 3
16 atoms in group patch3
group		patch6 type 6
32 atoms in group patch6
group           patch5 type 5
90 atoms in group patch5
group           patch7 type 7
12 atoms in group patch7
group           patch8 type 8
12 atoms in group patch8
#delete_atoms	group patch6
group		patch9 type 9
912 atoms in group patch9
delete_atoms	group patch9
Deleted 912 atoms, new total = 186
#delete_atoms    group patch3
#delete_atoms    group patch4
#delete_atoms    group patch6

#temperature is 0.028 before
variable	t equal 0.2
variable	tf equal 0.2
velocity	all create $t 55
velocity	all create 0.2 55

#c is 2.35 before for chains, 1.9 for very compact
variable	c equal 1.8
variable	s equal $c/2^(1./6.)
variable	s equal 1.8/2^(1./6.)

#variable        m equal ${shift}/2^(1./6.)
#variable        n equal $m*1.6

variable	u equal 1.0
variable	v equal $u/2^(1./6.)
variable	v equal 1/2^(1./6.)

variable	p equal 1.0
variable	q equal $p/2^(1./6.)
variable	q equal 1/2^(1./6.)

variable	h equal 1.0
variable	k equal $h/2^(1./6.)
variable	k equal 1/2^(1./6.)

variable	h2 equal 1.0
variable	k2 equal ${h2}/2^(1./6.)
variable	k2 equal 1/2^(1./6.)

variable	h3 equal sqrt(2.0) # 1.414
variable	k3 equal ${h3}/2^(1./6.)
variable	k3 equal 1.4142135623731/2^(1./6.)

variable        b equal 0.2
variable	b1 equal 0.14

variable        c3 equal 2.0
variable        s3 equal ${c3}/2^(1./6.)
variable        s3 equal 2/2^(1./6.)

variable        c5 equal 1.6
variable        s5 equal ${c5}/2^(1./6.)
variable        s5 equal 1.6/2^(1./6.)

variable        h4 equal 0.5
variable        k4 equal ${h4}/2^(1./6.)
variable        k4 equal 0.5/2^(1./6.)

variable        h5 equal 0.25
variable        k5 equal ${h5}/2^(1./6.)
variable        k5 equal 0.25/2^(1./6.)

variable        c4 equal 0.707
variable        s4 equal ${c4}/2^(1./6.)
variable        s4 equal 0.707/2^(1./6.)

variable        c6 equal 2.5
variable        s6 equal ${c6}/2^(1./6.)
variable        s6 equal 2.5/2^(1./6.)

variable        c7 equal 2.8
variable        s7 equal ${c7}/2^(1./6.)
variable        s7 equal 2.8/2^(1./6.)

#pair_style	lj/cut/bump/smooth/linear 2.5
pair_style	lj/cut/bump 2.8 #cutoff 2.8
pair_coeff      * * 0.02 $v 1.0 1 0 $u
pair_coeff      * * 0.02 0.890898718140339 1.0 1 0 $u
pair_coeff      * * 0.02 0.890898718140339 1.0 1 0 1

#backbone
#in hard segment
pair_coeff	1 1 5.0 $s  1.0 1 0 1.8 #1.8 only repulsion
pair_coeff	1 1 5.0 1.60361769265261  1.0 1 0 1.8 
pair_coeff	2 2 5.0 $s  1.0 1 0 1.8 #1.8 only repulsion
pair_coeff	2 2 5.0 1.60361769265261  1.0 1 0 1.8 
pair_coeff	1 2 5.0 ${k2} 1.2 1 1.0 1.8 #1 strong bond
pair_coeff	1 2 5.0 0.890898718140339 1.2 1 1.0 1.8 

#connect soft segments in outside and inside hard segments
pair_coeff      2 7 20.0 ${k2} 1.2 1 1.0 1.8 #1 strong bond
pair_coeff      2 7 20.0 0.890898718140339 1.2 1 1.0 1.8 
pair_coeff      1 8 20.0 ${k2} 1.2 1 1.0 1.8 #1 strong bond
pair_coeff      1 8 20.0 0.890898718140339 1.2 1 1.0 1.8 
pair_coeff      1 7 20.0 $s  1.0 1 0 1.8 #1.8 only repulsion
pair_coeff      1 7 20.0 1.60361769265261  1.0 1 0 1.8 
pair_coeff      2 8 20.0 $s  1.0 1 0 1.8 #1.8 only repulsion
pair_coeff      2 8 20.0 1.60361769265261  1.0 1 0 1.8 

#soft segment (distance between soft/soft = 2.2)
pair_coeff      7 7 20.0 $s  1.0 1 0 1.8 #1.8 only repulsion
pair_coeff      7 7 20.0 1.60361769265261  1.0 1 0 1.8 
pair_coeff      8 8 20.0 $s  1.0 1 0 1.8 #1.8 only repulsion
pair_coeff      8 8 20.0 1.60361769265261  1.0 1 0 1.8 
pair_coeff      7 8 20.0 ${k2} 1.2 1 1.0 1.8 #1 strong bond
pair_coeff      7 8 20.0 0.890898718140339 1.2 1 1.0 1.8 

#intramolecular interactions in hard segments
pair_coeff	1 3 20.0 ${k4} 1.2 1 2.0 1.118 #0.5 strong bond
pair_coeff	1 3 20.0 0.44544935907017 1.2 1 2.0 1.118 
pair_coeff	2 3 20.0 ${k4} 1.2 1 2.0 1.118 #0.5 strong bond
pair_coeff	2 3 20.0 0.44544935907017 1.2 1 2.0 1.118 
pair_coeff	1 4 20.0 ${k4} 1.2 1 2.0 1.118 #0.5 strong bond
pair_coeff	1 4 20.0 0.44544935907017 1.2 1 2.0 1.118 
pair_coeff	2 4 20.0 ${k4} 1.2 1 2.0 1.118 #0.5 strong bond
pair_coeff	2 4 20.0 0.44544935907017 1.2 1 2.0 1.118 
pair_coeff      1*2 6 20.0 ${s4} 1.2 1 2.0 1.225 #0.707 strong bond
pair_coeff      1*2 6 20.0 0.62986539372522 1.2 1 2.0 1.225 

pair_coeff      3 4 20.0 ${s4} 1.2 1 2.0 1.225 #0.707 weak bond
pair_coeff      3 4 20.0 0.62986539372522 1.2 1 2.0 1.225 
pair_coeff      3*4 6 20.0 ${k4} 1.2 1 2.0 1.118 #0.5 strong bond
pair_coeff      3*4 6 20.0 0.44544935907017 1.2 1 2.0 1.118 
#pair_coeff      3*4 6 0.01 ${k5} 1.2 1 0.0 0.25 #0.25 only repulsion

pair_coeff	3 3 5.0 ${k2} 1.2 1 1.0 1.414 #1 strong bond
pair_coeff	3 3 5.0 0.890898718140339 1.2 1 1.0 1.414 
pair_coeff	4 4 5.0 ${k2} 1.2 1 1.0 1.414 #1 strong bond
pair_coeff	4 4 5.0 0.890898718140339 1.2 1 1.0 1.414 

pair_coeff      6 6 5.0 ${k2} 1.2 1 1.0 1.414 #1 strong bond
pair_coeff      6 6 5.0 0.890898718140339 1.2 1 1.0 1.414 

#intermolecular interactions between soft and hard segments

pair_coeff      3*4 7 0.01 ${k4} 1.2 1 0.0 0.5 #0.5 only repulsion
pair_coeff      3*4 7 0.01 0.44544935907017 1.2 1 0.0 0.5 
pair_coeff      3*4 8 0.01 ${k4} 1.2 1 0.0 0.5 #0.5 only repulsion
pair_coeff      3*4 8 0.01 0.44544935907017 1.2 1 0.0 0.5 
pair_coeff      6 7 0.01 ${k4} 1.2 1 0.0 0.5 #0.5 only repulsion
pair_coeff      6 7 0.01 0.44544935907017 1.2 1 0.0 0.5 
pair_coeff      6 8 0.01 ${k4} 1.2 1 0.0 0.5 #0.5 only repulsion
pair_coeff      6 8 0.01 0.44544935907017 1.2 1 0.0 0.5 

#interaction with solvent particles
variable        c8 equal 2.0
variable        s8 equal ${c8}/2^(1./6.)
variable        s8 equal 2/2^(1./6.)

variable        c9 equal 2.2
variable        s9 equal ${c9}/2^(1./6.)
variable        s9 equal 2.2/2^(1./6.)

variable        c10 equal 0.3
variable        s10 equal ${c10}/2^(1./6.)
variable        s10 equal 0.3/2^(1./6.)

pair_coeff      1*2 5 0.05 ${s9} 1.2 1 0.0 2.2 # 2.2 only repulsion
pair_coeff      1*2 5 0.05 1.95997717990875 1.2 1 0.0 2.2 

pair_coeff      3*4 5 0.01 ${s10} 1.2 1 0.0 0.3 #only repulsion
pair_coeff      3*4 5 0.01 0.267269615442102 1.2 1 0.0 0.3 
pair_coeff      5 6 0.01 ${s10} 1.2 1 0.0 0.3 #only repulsion
pair_coeff      5 6 0.01 0.267269615442102 1.2 1 0.0 0.3 

pair_coeff      5 5 0.05 ${s9} 1.2 1 0.0 2.2 # 2.2 only repulsion
pair_coeff      5 5 0.05 1.95997717990875 1.2 1 0.0 2.2 

pair_coeff      5 7 0.05 ${s8} 1.2 1 0.0 2.0 # 2.0 only repulsion
pair_coeff      5 7 0.05 1.78179743628068 1.2 1 0.0 2.0 
pair_coeff      5 8 0.05 ${s8} 1.2 1 0.0 2.0 # 2.0 only repulsion
pair_coeff      5 8 0.05 1.78179743628068 1.2 1 0.0 2.0 

#velocity	all set NULL 0.0 0.0
#fix		11 all setforce NULL 0.0 0.0

pair_modify	tail no
pair_modify	shift yes
neighbor	1.0 bin
neigh_modify	every 1 delay 0 check yes

timestep	0.001
thermo		100
thermo_style    custom step temp pe ke etotal pxx pyy pzz lx ly lz press vol

dump            1 all custom 100000 lata4olivia_initial id type x y z fx fy fz

############temperature control
fix             1 all nvt temp ${tf} ${tf} 0.1
fix             1 all nvt temp 0.2 ${tf} 0.1
fix             1 all nvt temp 0.2 0.2 0.1

############decide the length of the chain and the number of chains
variable        nrepeat equal 16 #chain length
#variable        nrep equal 4  #sample size

###############make one single chain
replicate       ${nrepeat} 1 1
replicate       16 1 1
Replication is creating a 16x1x1 = 16 times larger system...
  orthogonal box = (0 4 4) to (512 14 14)
  1 by 1 by 1 MPI processor grid
  2976 atoms
  replicate CPU = 0.004 seconds
region  end block  0 2 INF INF INF INF units box
delete_atoms    region end
Deleted 2 atoms, new total = 2974

################increase the box
variable        newsized equal ly*16
fix             2 all deform 1 y final 0 ${newsized} z final 0 ${newsized} units box
fix             2 all deform 1 y final 0 160 z final 0 ${newsized} units box
fix             2 all deform 1 y final 0 160 z final 0 160 units box

run             10000#test!0
Generated 0 of 36 mixed pair_coeff terms from geometric mixing rule
Neighbor list info ...
  update: every = 1 steps, delay = 0 steps, check = yes
  max neighbors/atom: 2000, page size: 100000
  master list distance cutoff = 3.2
  ghost atom cutoff = 3.2
  binsize = 1.6, bins = 320 7 7
  1 neighbor lists, perpetual/occasional/extra = 1 0 0
  (1) pair lj/cut/bump, perpetual
      attributes: half, newton on
      pair build: half/bin/atomonly/newton
      stencil: half/bin/3d
      bin: standard
Per MPI rank memory allocation (min/avg/max) = 3.685 | 3.685 | 3.685 Mbytes
   Step          Temp          PotEng         KinEng         TotEng          Pxx            Pyy            Pzz             Lx             Ly             Lz           Press          Volume    
         0   0.19898075     253.81757      0.29837077     254.11594      193.37004     -0.020769295   -0.021577408    512            10             10             64.442566      51200        
       100   1.2620716     -20.873287      1.8924708     -18.980816      0.42043783     0.045811665    0.031723151    512            11.5           11.5           0.16599088     67712        
       200   0.20631087    -21.295255      0.30936225    -20.985893      0.062387739    0.004282687   -0.00045181449  512            13             13             0.02207287     86528        
       300   0.10297321    -21.368774      0.15440788    -21.214366      0.0090861057   0.0039957052   0.0023422656   512            14.5           14.5           0.0051413588   107648       
       400   0.1162642     -21.386564      0.17433766    -21.212227      0.0046095912   0.0022174896   0.0029604226   512            16             16             0.0032625011   131072       
       500   0.23672089    -21.387967      0.35496194    -21.033006      0.0083931709   0.0023762273   0.0037374047   512            17.5           17.5           0.004835601    156800       
       600   0.30749637    -21.387029      0.46108946    -20.92594       0.0057074341   0.0017473191  -0.002428053    512            19             19             0.0016755667   184832       
       700   0.17511427    -21.388064      0.26258309    -21.125481      0.0021574814   0.0020291367   0.0042256386   512            20.5           20.5           0.0028040856   215168       
       800   0.12528093    -21.388465      0.18785821    -21.200607      0.0051988803   0.0035896765   5.5441828e-06  512            22             22             0.002931367    247808       
       900   0.17232108    -21.387786      0.25839471    -21.129391      0.00089007047 -0.0017803465  -0.0020931439   512            23.5           23.5          -0.00099447331  282752       
      1000   0.27879954    -21.385799      0.41805869    -20.96774       0.0071489572   0.0016560612   0.0013169907   512            25             25             0.003374003    320000       
      1100   0.23611447    -21.38516       0.35405262    -21.031107      0.0055783796   0.0018275804   0.0020213568   512            26.5           26.5           0.0031424389   359552       
      1200   0.14875576    -21.386122      0.22305862    -21.163064      0.00053694509  0.00089602293 -3.3297113e-07  512            28             28             0.00047754502  401408       
      1300   0.14719779    -21.38638       0.22072244    -21.165658      0.0014411604   0.0016620502   0.0013180857   512            29.5           29.5           0.0014737654   445568       
      1400   0.22546031    -21.384882      0.33807675    -21.046806      0.0025553205   9.1715342e-05 -0.00018739833  512            31             31             0.00081987918  492032       
      1500   0.26856286    -21.383776      0.40270884    -20.981067      0.0028490708   0.0008396044   0.00025529635  512            32.5           32.5           0.0013146572   540800       
      1600   0.18563577    -21.384819      0.27836003    -21.106459      0.00086435329  0.00073352926  0.00072582485  512            34             34             0.00077456913  591872       
      1700   0.14433392    -21.385053      0.21642809    -21.168625     -4.1974596e-05  0.00067310943  0.00034751945  512            35.5           35.5           0.00032621809  645248       
      1800   0.18250636    -21.384309      0.27366749    -21.110641      0.00054332374 -0.00016201903 -0.00022714121  512            37             37             5.1387834e-05  700928       
      1900   0.25840822    -21.383428      0.387482      -20.995946      0.0019653136   0.0004020801   3.4563916e-05  512            38.5           38.5           0.00080065255  758912       
      2000   0.22677542    -21.383721      0.34004874    -21.043672      0.0013392048   0.00017503829  0.00028103111  512            40             40             0.00059842472  819200       
      2100   0.15868175    -21.383712      0.2379426     -21.145769      0.0010390113   0.00071701894  0.00038308581  512            41.5           41.5           0.00071303868  881792       
      2200   0.15892765    -21.383927      0.23831131    -21.145616      0.00090792071 -3.741681e-05  -3.7055368e-05  512            43             43             0.00027781618  946688       
      2300   0.22348787    -21.383169      0.33511909    -21.04805       0.001281995    0.00067016193  8.3651286e-05  512            44.5           44.5           0.00067860272  1013888      
      2400   0.25269378    -21.382213      0.37891321    -21.003299      0.0012852864   0.00031319231 -0.00040170754  512            46             46             0.00039892371  1083392      
      2500   0.17832502    -21.368358      0.26739759    -21.10096       0.0015089806  -0.00021262474 -0.00015984214  512            47.5           47.5           0.00037883791  1155200      
      2600   0.16247652    -21.383083      0.24363283    -21.13945       0.00083975101 -0.00010547891  0.00021363041  512            49             49             0.0003159675   1229312      
      2700   0.19348767    -21.379256      0.29013391    -21.089122      0.00067385249  0.00058694088  0.00080416217  512            50.5           50.5           0.00068831851  1305728      
      2800   0.24104296    -21.376438      0.36144286    -21.014996      0.0011956095   0.00037931621  0.00063423019  512            52             52             0.0007363853   1384448      
      2900   0.21285862    -21.363015      0.31918056    -21.043834      0.00027273948  0.00048624004  0.00058843032  512            53.5           53.5           0.00044913661  1465472      
      3000   0.17320027    -21.366353      0.25971304    -21.10664       3.0514623e-05  0.0003771492  -1.689946e-05   512            55             55             0.00013025479  1548800      
      3100   0.18112652    -21.379334      0.27159843    -21.107736     -8.7957987e-05  0.00027053343  0.00059886958  512            56.5           56.5           0.00026048168  1634432      
      3200   0.21489768    -21.379706      0.32223813    -21.057467      0.00022434291  0.00037641743  8.3508752e-05  512            58             58             0.00022808969  1722368      
      3300   0.22393597    -21.379823      0.33579101    -21.044032      0.0001224375   0.00040788674  0.00040361528  512            59.5           59.5           0.00031131318  1812608      
      3400   0.19158676    -21.380701      0.28728351    -21.093418      0.00013752531  0.00047168762  0.0001176507   512            61             61             0.00024228787  1905152      
      3500   0.17554382    -21.381038      0.26322718    -21.117811      0.00032645049  8.2625656e-05  0.00014415194  512            62.5           62.5           0.00018440936  2000000      
      3600   0.19736608    -21.380102      0.29594958    -21.084152      0.00033465685  0.00012049799  2.8957377e-05  512            64             64             0.00016137074  2097152      
      3700   0.22647289    -21.380177      0.3395951     -21.040582      0.00044149508  0.00030146302  0.00013926686  512            65.5           65.5           0.00029407499  2196608      
      3800   0.20871569    -21.379558      0.31296826    -21.06659       0.00031022478  0.00015957648  0.00011092208  512            67             67             0.00019357445  2298368      
      3900   0.17894698    -21.379875      0.26833021    -21.111545      0.00035548733  0.00020114708  9.4267727e-06  512            68.5           68.5           0.00018868706  2402432      
      4000   0.18330413    -21.379415      0.27486374    -21.104551      0.00012657355  0.0001237069   0.00028883988  512            70             70             0.00017970677  2508800      
      4100   0.21573085    -21.378292      0.32348747    -21.054805      0.00021616962  0.00040854885  6.4370902e-05  512            71.5           71.5           0.00022969645  2617472      
      4200   0.22241444    -21.377772      0.33350948    -21.044262      0.00015765405  0.00017169286  0.0003226647   512            73             73             0.0002173372   2728448      
      4300   0.19087524    -21.378428      0.28621659    -21.092211     -1.5682597e-05  0.00035628226 -3.5282258e-05  512            74.5           74.5           0.00010177247  2841728      
      4400   0.17650971    -21.378631      0.26467555    -21.113956     -0.0001774438   3.6356167e-05  0.00011555031  512            76             76            -8.5124415e-06  2957312      
      4500   0.1989175     -21.377832      0.29827592    -21.079556      7.0194314e-05  0.00031766378  2.2616624e-05  512            77.5           77.5           0.00013682491  3075200      
      4600   0.2251154     -21.376948      0.33755956    -21.039389      0.00021285325  0.00015951595  0.00019004661  512            79             79             0.00018747194  3195392      
      4700   0.20736798    -21.377444      0.31094738    -21.066496      0.00034076504  0.00021989922  0.0001548388   512            80.5           80.5           0.00023850102  3317888      
      4800   0.17927212    -21.378039      0.26881776    -21.109221      0.00021615852  0.00016221084  0.00018374237  512            82             82             0.00018737058  3442688      
      4900   0.18446234    -21.377658      0.27660047    -21.101058      0.00037791936  9.7044175e-05  0.00016853847  512            83.5           83.5           0.00021450067  3569792      
      5000   0.21524449    -21.375794      0.32275818    -21.053036      0.00031106431  0.00022990645  0.00010862515  512            85             85             0.00021653197  3699200      
      5100   0.22171349    -21.376006      0.33245841    -21.043548      0.0002137297   9.6600805e-05  0.00018385959  512            86.5           86.5           0.00016473003  3830912      
      5200   0.19122309    -21.376547      0.28673819    -21.089808      0.00016474283  0.00025018755  0.00011783752  512            88             88             0.0001775893   3964928      
      5300   0.17704568    -21.376435      0.26547922    -21.110956      0.00013960044  0.00011340241  0.00014060166  512            89.5           89.5           0.00013120151  4101248      
      5400   0.19906371    -21.375675      0.29849517    -21.07718       3.2929513e-05  0.00010933446  9.806386e-05   512            91             91             8.0109277e-05  4239872      
      5500   0.22457253    -21.374497      0.33674553    -21.037752      5.1239056e-05  0.00024659877  0.00018582838  512            92.5           92.5           0.00016122207  4380800      
      5600   0.2071888     -21.374561      0.31067869    -21.063882      3.2595723e-05  0.00019306894  0.00017749576  512            94             94             0.00013438681  4524032      
      5700   0.18013214    -21.375787      0.27010735    -21.10568       3.0657587e-05  0.00010004565  0.00013673829  512            95.5           95.5           8.9147177e-05  4669568      
      5800   0.18471686    -21.375285      0.27698213    -21.098303      0.00013196739  4.8401534e-05  4.1644529e-06  512            97             97             6.1511125e-05  4817408      
      5900   0.21505752    -21.374269      0.3224778     -21.051791      0.00020968908  4.2304026e-05  0.00010452763  512            98.5           98.5           0.00011884024  4967552      
      6000   0.22074308    -21.374058      0.33100328    -21.043055      0.00023888877  0.00011210106  8.2725929e-05  512            100            100            0.00014457192  5120000      
      6100   0.19121631    -21.374609      0.28672802    -21.087881      0.00017908039  9.3963184e-05  0.00011231418  512            101.5          101.5          0.00012845258  5274752      
      6200   0.17802687    -21.374941      0.26695051    -21.107991      0.00017720799  5.6670284e-05  0.0001252467   512            103            103            0.00011970832  5431808      
      6300   0.19901514    -21.373657      0.29842233    -21.075235      0.00012891065  8.6904607e-05 -1.1226221e-05  512            104.5          104.5          6.8196347e-05  5591168      
      6400   0.22381085    -21.372984      0.33560339    -21.03738       0.00010513005 -2.3371643e-05  4.3673731e-05  512            106            106            4.1810712e-05  5752832      
      6500   0.20684894    -21.372306      0.31016908    -21.062137     -5.4402212e-05  7.053346e-05  -9.9152309e-06  512            107.5          107.5          2.0720058e-06  5916800      
      6600   0.18080733    -21.373199      0.2711198     -21.102079     -0.00011819738  8.7158954e-05  3.8971048e-05  512            109            109            2.6442068e-06  6083072      
      6700   0.18539984    -21.372723      0.27800625    -21.094717     -7.0819176e-05  7.4990021e-05  5.34786e-05    512            110.5          110.5          1.9216482e-05  6251648      
      6800   0.21419322    -21.371351      0.3211818     -21.05017       1.371096e-06   0.00010751139  7.7323174e-05  512            112            112            6.2068555e-05  6422528      
      6900   0.21975227    -21.371346      0.32951757    -21.041829      6.7196592e-05  6.5300104e-05  9.6488532e-05  512            113.5          113.5          7.6328409e-05  6595712      
      7000   0.19167203    -21.372227      0.28741136    -21.084816      0.00012341539  8.7873048e-05  3.4680017e-05  512            115            115            8.1989486e-05  6771200      
      7100   0.17898098    -21.372889      0.26838119    -21.104508      0.00016450748  7.3763306e-05  5.3816291e-05  512            116.5          116.5          9.736236e-05   6948992      
      7200   0.19888911    -21.371285      0.29823334    -21.073051      0.000158968    7.6506732e-05  6.4752223e-05  512            118            118            0.00010007565  7129088      
      7300   0.22217104    -21.370035      0.33314451    -21.036891      0.00015922098  6.3099972e-05  3.2775384e-05  512            119.5          119.5          8.5032112e-05  7311488      
      7400   0.20687436    -21.370319      0.31020719    -21.060112      8.0719697e-05  3.5420078e-05  8.4588714e-07  512            121            121            3.8995221e-05  7496192      
      7500   0.18166781    -21.37112       0.27241009    -21.09871      -9.6225599e-06  5.3792237e-05  0.00010475588  512            122.5          122.5          4.9641851e-05  7683200      
      7600   0.18582338    -21.370739      0.27864135    -21.092098     -2.775416e-06   8.6740226e-05  2.0518392e-05  512            124            124            3.4827734e-05  7872512      
      7700   0.21367903    -21.369612      0.32041077    -21.049201      6.9279296e-06  7.3614073e-05  7.3703498e-05  512            125.5          125.5          5.1415167e-05  8064128      
      7800   0.21947697    -21.368776      0.32910475    -21.039671     -5.8875982e-05  9.1740174e-05  7.4640364e-05  512            127            127            3.5834852e-05  8258048      
      7900   0.19314587    -21.370416      0.28962139    -21.080794      1.481882e-05   4.9431366e-05  3.8883263e-05  512            128.5          128.5          3.4377816e-05  8454272      
      8000   0.17968224    -21.370916      0.26943273    -21.101483      4.7346207e-05 -1.7781024e-06  3.6862934e-05  512            130            130            2.7477013e-05  8652800      
      8100   0.19798601    -21.369308      0.29687916    -21.072429      0.00010525827  8.3587237e-05  6.9289785e-06  512            131.5          131.5          6.5258161e-05  8853632      
      8200   0.22134463    -21.368061      0.33190531    -21.036156      0.0001098632   3.0059013e-05  5.6734579e-05  512            133            133            6.5552265e-05  9056768      
      8300   0.20810249    -21.368686      0.31204878    -21.056638      8.6987121e-05  9.5231397e-05  4.3925412e-06  512            134.5          134.5          6.2203686e-05  9262208      
      8400   0.1827501     -21.36942       0.27403298    -21.095387      7.7495717e-05  2.2778392e-05  2.882143e-05   512            136            136            4.3031846e-05  9469952      
      8500   0.18514419    -21.368829      0.2776229     -21.091206      1.7967649e-05  5.9978476e-05 -1.6432037e-05  512            137.5          137.5          2.0504696e-05  9680000      
      8600   0.2122243     -21.367645      0.3182294     -21.049415      2.2820223e-05  5.8180275e-05  3.5066777e-05  512            139            139            3.8689092e-05  9892352      
      8700   0.21953936    -21.366408      0.32919832    -21.03721      -1.394114e-06   5.6601434e-05  7.0582457e-05  512            140.5          140.5          4.1929926e-05  10107008     
      8800   0.19417834    -21.367464      0.29116958    -21.076295     -5.597298e-05   6.6012034e-05  5.7330819e-05  512            142            142            2.2456624e-05  10323968     
      8900   0.18044941    -21.368533      0.2705831     -21.09795       8.3539819e-06  3.0124781e-05  4.8572352e-05  512            143.5          143.5          2.9017038e-05  10543232     
      9000   0.1969601     -21.367105      0.29534081    -21.071764      2.3860654e-05  4.268198e-05   1.8579798e-05  512            145            145            2.8374144e-05  10764800     
      9100   0.22019503    -21.366013      0.33018148    -21.035831      6.7566338e-05  7.0112833e-05  4.5377748e-05  512            146.5          146.5          6.1018973e-05  10988672     
      9200   0.20858495    -21.36597       0.31277223    -21.053198      8.5900286e-05  5.0507438e-05  6.6488754e-05  512            148            148            6.7632159e-05  11214848     
      9300   0.18402688    -21.367288      0.2759475     -21.09134       8.3527814e-05  7.3401553e-05  1.0265574e-05  512            149.5          149.5          5.5731647e-05  11443328     
      9400   0.18518128    -21.36712       0.27767852    -21.089442      2.1622857e-05  3.9450813e-06  6.5734493e-05  512            151            151            3.0434144e-05  11674112     
      9500   0.20992922    -21.364842      0.31478795    -21.050054      2.7408777e-05  9.5776966e-05  2.1141601e-05  512            152.5          152.5          4.8109115e-05  11907200     
      9600   0.21883571    -21.363944      0.32814319    -21.035801      5.54342e-06    2.1925047e-05  4.2018358e-05  512            154            154            2.3162275e-05  12142592     
      9700   0.19597566    -21.36541       0.29386465    -21.071545     -3.2106173e-06  8.3787551e-05  9.4723925e-06  512            155.5          155.5          3.0016442e-05  12380288     
      9800   0.18099807    -21.366286      0.27140581    -21.09488       1.0944358e-05  6.0055395e-05  4.1476604e-05  512            157            157            3.7492119e-05  12620288     
      9900   0.19547199    -21.365045      0.2931094     -21.071935      3.0693119e-05  7.1600812e-05  8.5907992e-05  512            158.5          158.5          6.2733974e-05  12862592     
     10000   0.21886904    -21.363848      0.32819317    -21.035654      7.0102909e-05  7.2236294e-05  6.6497917e-05  512            160            160            6.9612373e-05  13107200     
Loop time of 3.95774 on 1 procs for 10000 steps with 2974 atoms

Performance: 218306.590 tau/day, 2526.697 timesteps/s, 7.514 Matom-step/s
94.8% CPU use with 1 MPI tasks x 1 OpenMP threads

MPI task timing breakdown:
Section |  min time  |  avg time  |  max time  |%varavg| %total
---------------------------------------------------------------
Pair    | 2.2303     | 2.2303     | 2.2303     |   0.0 | 56.35
Neigh   | 1.0046     | 1.0046     | 1.0046     |   0.0 | 25.38
Comm    | 0.087683   | 0.087683   | 0.087683   |   0.0 |  2.22
Output  | 0.010413   | 0.010413   | 0.010413   |   0.0 |  0.26
Modify  | 0.51211    | 0.51211    | 0.51211    |   0.0 | 12.94
Other   |            | 0.1127     |            |       |  2.85

Nlocal:           2974 ave        2974 max        2974 min
Histogram: 1 0 0 0 0 0 0 0 0 0
Nghost:            113 ave         113 max         113 min
Histogram: 1 0 0 0 0 0 0 0 0 0
Neighs:          20600 ave       20600 max       20600 min
Histogram: 1 0 0 0 0 0 0 0 0 0

Total # of neighbors = 20600
Ave neighs/atom = 6.926698
Neighbor list builds = 576
Dangerous builds = 0
############deform to x axis##########################################################
unfix           2
variable        lengthx equal 50*${nrepeat}/4.0
variable        lengthx equal 50*16/4.0
fix             2 all deform 1 x final 0 ${lengthx} units box
fix             2 all deform 1 x final 0 200 units box
run             10000#test!0
Generated 0 of 36 mixed pair_coeff terms from geometric mixing rule
Per MPI rank memory allocation (min/avg/max) = 19.53 | 19.53 | 19.53 Mbytes
   Step          Temp          PotEng         KinEng         TotEng          Pxx            Pyy            Pzz             Lx             Ly             Lz           Press          Volume    
     10000   0.21886904    -21.363866      0.32819317    -21.035673      6.6217118e-05  5.4599043e-05  4.7446508e-05  512            160            160            5.6087556e-05  13107200     
     10100   0.2101649     -21.359921      0.31514135    -21.04478       0.00045415249  1.7952389e-05  1.3787357e-05  508.88         160            160            0.00016196408  13027328     
     10200   0.18880632    -21.354759      0.28311425    -21.071645      0.00068757983  1.689329e-05   3.7812947e-06  505.76         160            160            0.00023608481  12947456     
     10300   0.19284797    -21.360807      0.28917469    -21.071633      0.00040116681  1.6374878e-05 -1.8571239e-06  502.64         160            160            0.00013856152  12867584     
     10400   0.19251288    -21.355046      0.28867222    -21.066374     -0.00034512259 -5.6936264e-06  2.3990373e-06  499.52         160            160           -0.00011613906  12787712     
     10500   0.20003421    -21.350269      0.29995043    -21.050319     -0.00020564024  3.5709244e-05  1.0811589e-05  496.4          160            160           -5.3039801e-05  12707840     
     10600   0.21961529    -21.352632      0.32931217    -21.02332       0.00039590779  4.5610081e-05  4.6578811e-05  493.28         160            160            0.0001626989   12627968     
     10700   0.20884329    -21.352958      0.31315961    -21.039799      0.00045465281  2.8151391e-05  5.6819798e-05  490.16         160            160            0.00017987467  12548096     
     10800   0.18152884    -21.354664      0.2722017     -21.082463      8.2052489e-05  3.6348712e-05  4.3492578e-06  487.04         160            160            4.091682e-05   12468224     
     10900   0.18003694    -21.351845      0.26996461    -21.08188       9.9544313e-05  1.9631513e-05  3.0175222e-05  483.92         160            160            4.9783683e-05  12388352     
     11000   0.21546555    -21.353219      0.32308965    -21.03013       0.00024747302  4.2041977e-05  8.5011405e-05  480.8          160            160            0.00012484213  12308480     
     11100   0.22557057    -21.349705      0.33824209    -21.011463      0.00020312743  7.6726432e-05  2.5327069e-05  477.68         160            160            0.00010172698  12228608     
     11200   0.19142476    -21.350532      0.28704058    -21.063492      0.00017152543  2.1919259e-05  4.2970976e-05  474.56         160            160            7.8805221e-05  12148736     
     11300   0.17411453    -21.354288      0.26108397    -21.093204      5.4330025e-05  6.498379e-06   4.727926e-07   471.44         160            160            2.0433732e-05  12068864     
     11400   0.1945379     -21.352333      0.29170874    -21.060624      0.00021371145  3.2161902e-05  4.0467933e-05  468.32         160            160            9.5447095e-05  11988992     
     11500   0.22558725    -21.34917       0.3382671     -21.010903      6.9195495e-05  8.392866e-05   4.93734e-05    465.2          160            160            6.7499185e-05  11909120     
     11600   0.21121222    -21.346998      0.31671181    -21.030286      0.00012845166  2.034325e-05   5.4687112e-05  462.08         160            160            6.782734e-05   11829248     
     11700   0.1852269     -21.351095      0.27774693    -21.073348      0.00027370902  3.5161868e-05  1.8274544e-05  458.96         160            160            0.00010904848  11749376     
     11800   0.18237176    -21.350801      0.27346566    -21.077335      0.00010194525  3.2951325e-05  3.207035e-05   455.84         160            160            5.5655642e-05  11669504     
     11900   0.20594579    -21.347538      0.30881481    -21.038723      0.00012847471  1.6477801e-05 -6.5740356e-06  452.72         160            160            4.6126157e-05  11589632     
     12000   0.22136276    -21.34341       0.33193249    -21.011478      0.00018318326  1.6122803e-05  2.5499895e-05  449.6          160            160            7.4935319e-05  11509760     
     12100   0.20391904    -21.343959      0.30577571    -21.038183      0.00023351569  4.1836783e-05 -6.3480356e-07  446.48         160            160            9.1572555e-05  11429888     
     12200   0.18277178    -21.345404      0.27406548    -21.071339      0.00017484285  3.0940048e-06 -2.8416556e-06  443.36         160            160            5.8365067e-05  11350016     
     12300   0.18883378    -21.346197      0.28315543    -21.063042      0.00018800568 -5.5726967e-06  1.776347e-05   440.24         160            160            6.6732151e-05  11270144     
     12400   0.21179561    -21.341981      0.31758659    -21.024394      0.000185438    8.4156487e-05  5.6602019e-05  437.12         160            160            0.00010873217  11190272     
     12500   0.21610124    -21.340825      0.32404287    -21.016782      0.00018415177  2.8978726e-05  5.6800628e-05  434            160            160            8.997704e-05   11110400     
     12600   0.1942905     -21.345777      0.29133776    -21.054439      0.00018164764  7.6438273e-05  2.3434713e-05  430.88         160            160            9.384021e-05   11030528     
     12700   0.1811561     -21.344624      0.27164278    -21.072981      0.00018816072  1.4100592e-05  3.3485075e-05  427.76         160            160            7.858213e-05   10950656     
     12800   0.19714552    -21.341908      0.29561884    -21.046289      0.00011443334  3.2740697e-05  1.1625733e-05  424.64         160            160            5.2933256e-05  10870784     
     12900   0.21799134    -21.339867      0.32687706    -21.01299       0.00015150685  4.870905e-05   9.8781063e-06  421.52         160            160            7.0031336e-05  10790912     
     13000   0.21043087    -21.341625      0.31554017    -21.026085      0.00011243311  6.0231349e-05  8.0200999e-05  418.4          160            160            8.4288488e-05  10711040     
     13100   0.18680872    -21.343357      0.28011886    -21.063238      0.00010738752  5.6436213e-05  6.9180598e-05  415.28         160            160            7.766811e-05   10631168     
     13200   0.1833998     -21.342809      0.27500719    -21.067802      0.00010057885  5.0149016e-05  3.4448867e-05  412.16         160            160            6.1725576e-05  10551296     
     13300   0.20659191    -21.342231      0.30978367    -21.032447      6.9990837e-05  1.1096234e-05  3.2128011e-05  409.04         160            160            3.773836e-05   10471424     
     13400   0.21920783    -21.339572      0.32870119    -21.010871      0.00014551609  5.9546138e-05 -9.573005e-06   405.92         160            160            6.5163074e-05  10391552     
     13500   0.20050264    -21.341103      0.30065283    -21.04045       6.2033392e-05 -3.4382734e-05 -6.90706e-06    402.8          160            160            6.9145328e-06  10311680     
     13600   0.1828454     -21.344287      0.27417587    -21.070111      0.000128478    5.480715e-06   2.7271395e-05  399.68         160            160            5.3743371e-05  10231808     
     13700   0.19063017    -21.344301      0.28584911    -21.058452      2.9209717e-05  1.7495291e-05 -5.3018235e-06  396.56         160            160            1.3801061e-05  10151936     
     13800   0.21370982    -21.341064      0.32045694    -21.020607      0.00018848951  5.4540725e-05  6.6019483e-05  393.44         160            160            0.00010301657  10072064     
     13900   0.21431876    -21.338115      0.32137004    -21.016745      3.1983576e-05 -2.1014108e-05  1.9278632e-05  390.32         160            160            1.00827e-05    9992192      
     14000   0.19202243    -21.340177      0.2879368     -21.05224       0.00015352157  6.7041163e-05  1.3042849e-05  387.2          160            160            7.7868527e-05  9912320      
     14100   0.18431544    -21.340903      0.2763802     -21.064523      0.00015742528  5.1266608e-05  3.3219062e-05  384.08         160            160            8.0636982e-05  9832448      
     14200   0.19738853    -21.340339      0.29598324    -21.044356      1.904832e-06   1.7672881e-05  2.4962066e-05  380.96         160            160            1.4846593e-05  9752576      
     14300   0.21334305    -21.337765      0.31990697    -21.017858      8.6494671e-05  0.00011712449  6.3583e-05     377.84         160            160            8.9067386e-05  9672704      
     14400   0.20871263    -21.340628      0.31296367    -21.027665      5.8403906e-05  8.4302889e-05  5.8254992e-05  374.72         160            160            6.6987262e-05  9592832      
     14500   0.18970305    -21.340748      0.28445889    -21.056289      0.0001176504   6.2336994e-05  3.1990773e-05  371.6          160            160            7.0659391e-05  9512960      
     14600   0.1869962     -21.34036       0.28039998    -21.05996       0.00011687562  6.6020637e-06  2.6522128e-05  368.48         160            160            4.9999939e-05  9433088      
     14700   0.20509282    -21.340691      0.30753579    -21.033155      0.00010523906  3.2505909e-05  4.4466198e-05  365.36         160            160            6.0737056e-05  9353216      
     14800   0.21218773    -21.333936      0.31817458    -21.015762      7.3518777e-05  1.3832126e-05 -9.9625078e-06  362.24         160            160            2.5796132e-05  9273344      
     14900   0.20273667    -21.33946       0.30400276    -21.035457      0.00010004302  6.1277504e-05  3.2067577e-05  359.12         160            160            6.4462699e-05  9193472      
     15000   0.18608777    -21.339639      0.2790378     -21.060601      0.00015848885  2.2133765e-05 -1.0539113e-06  356            160            160            5.9856234e-05  9113600      
     15100   0.19116985    -21.340503      0.28665835    -21.053844      2.4351193e-05 -3.42859e-06   -2.446731e-05   352.88         160            160           -1.1815688e-06  9033728      
     15200   0.20796143    -21.337966      0.31183725    -21.026129      7.6661768e-05 -1.5944984e-05  1.5587485e-05  349.76         160            160            2.5434756e-05  8953856      
     15300   0.21262152    -21.335404      0.31882504    -21.016579      7.3456763e-05  8.1604282e-06  3.3432241e-05  346.64         160            160            3.8349811e-05  8873984      
     15400   0.19864425    -21.338982      0.29786619    -21.041116      6.9305492e-05  4.3617663e-05  3.5701878e-05  343.52         160            160            4.9541677e-05  8794112      
     15500   0.18852335    -21.342278      0.28268994    -21.059588      0.00014081015 -8.0958883e-06  8.7746902e-06  340.4          160            160            4.7162984e-05  8714240      
     15600   0.19455232    -21.339269      0.29173035    -21.047538     -1.1312058e-05  3.3207349e-05 -2.5672085e-05  337.28         160            160           -1.2589314e-06  8634368      
     15700   0.20939793    -21.335656      0.31399128    -21.021664      7.9802842e-06  1.4287048e-05 -4.7274038e-06  334.16         160            160            5.8466429e-06  8554496      
     15800   0.2111151     -21.335639      0.31656617    -21.019072      6.4367361e-05  3.1770252e-05 -1.1896106e-05  331.04         160            160            2.8080502e-05  8474624      
     15900   0.19478138    -21.338542      0.29207383    -21.046468      6.1771735e-05  2.6635019e-05  6.2370439e-05  327.92         160            160            5.0259065e-05  8394752      
     16000   0.18742957    -21.33983       0.28104981    -21.05878       4.9036411e-05  6.3784298e-05  7.5987359e-05  324.8          160            160            6.2936023e-05  8314880      
     16100   0.19701619    -21.337067      0.29542492    -21.041642      6.1013193e-05  1.530878e-05   9.6808312e-05  321.68         160            160            5.7710095e-05  8235008      
     16200   0.21309083    -21.336045      0.31952877    -21.016516      3.0231078e-05  2.7818801e-05  4.7177806e-05  318.56         160            160            3.5075895e-05  8155136      
     16300   0.20779991    -21.33693       0.31159506    -21.025335      0.00012184535  0.00010317521  3.7437719e-05  315.44         160            160            8.7486094e-05  8075264      
     16400   0.19046387    -21.338448      0.28559975    -21.052848      9.6354634e-05  9.6724662e-06  5.482546e-05   312.32         160            160            5.361752e-05   7995392      
     16500   0.18857812    -21.337834      0.28277207    -21.055062      0.00018292872  8.5803712e-05  2.2071634e-05  309.2          160            160            9.693469e-05   7915520      
     16600   0.20331808    -21.333414      0.30487457    -21.02854       8.3212481e-05  4.7196459e-05  9.0139416e-05  306.08         160            160            7.3516119e-05  7835648      
     16700   0.21360642    -21.333475      0.32030189    -21.013173      0.00016288403  4.5701983e-05  1.8087653e-05  302.96         160            160            7.5557887e-05  7755776      
     16800   0.20019653    -21.33488       0.30019382    -21.034686      4.2387563e-05  7.8469858e-05  2.2917643e-05  299.84         160            160            4.7925021e-05  7675904      
     16900   0.18734605    -21.337432      0.28092459    -21.056507      0.00010203078  4.6648054e-05  8.3371689e-05  296.72         160            160            7.7350176e-05  7596032      
     17000   0.19275406    -21.335431      0.28903387    -21.046397      0.00018492778  0.00015475468  0.00010468726  293.6          160            160            0.00014812324  7516160      
     17100   0.20972677    -21.332368      0.31448437    -21.017884      3.3604442e-05  5.7233687e-05  9.3214378e-05  290.48         160            160            6.1350836e-05  7436288      
     17200   0.2124688     -21.333681      0.31859604    -21.015085      0.00021227231  0.00015122885  9.9262332e-05  287.36         160            160            0.0001542545   7356416      
     17300   0.19323502    -21.334957      0.28975506    -21.045202      9.0835239e-05  4.5983525e-05  0.00011363287  284.24         160            160            8.3483878e-05  7276544      
     17400   0.18519782    -21.333721      0.27770333    -21.056018      0.0002036539   3.2696781e-05 -4.9481386e-06  281.12         160            160            7.713418e-05   7196672      
     17500   0.20265586    -21.334685      0.30388157    -21.030803      9.3358495e-05  5.6546825e-05  5.2511374e-05  278            160            160            6.7472232e-05  7116800      
     17600   0.21468183    -21.331946      0.32191447    -21.010032      0.00011733876  6.3131292e-05  0.00011485558  274.88         160            160            9.8441876e-05  7036928      
     17700   0.20217684    -21.332834      0.30316329    -21.02967       0.00013915727  6.8485186e-05  1.379046e-05   271.76         160            160            7.3810974e-05  6957056      
     17800   0.18867333    -21.336792      0.28291484    -21.053877      0.00020124146  0.00015397297  7.5599882e-05  268.64         160            160            0.00014360477  6877184      
     17900   0.19287524    -21.337174      0.28921558    -21.047958      0.00016307252  8.397565e-05   0.00015808758  265.52         160            160            0.00013504525  6797312      
     18000   0.20785761    -21.333902      0.31168158    -21.02222       6.2990833e-05  6.7178165e-05  6.3724505e-05  262.4          160            160            6.4631168e-05  6717440      
     18100   0.21252588    -21.333939      0.31868163    -21.015257      7.6915794e-05  8.7135019e-05  3.7946524e-05  259.28         160            160            6.7332446e-05  6637568      
     18200   0.19617468    -21.333749      0.29416308    -21.039586      9.2498338e-05  4.7329597e-05  9.8238648e-05  256.16         160            160            7.9355528e-05  6557696      
     18300   0.18818565    -21.334672      0.28218356    -21.052489      0.00014726195  0.00015995976  5.6001589e-05  253.04         160            160            0.00012107444  6477824      
     18400   0.19841304    -21.333717      0.29751948    -21.036198      0.00015918287  7.3435638e-05  5.2660533e-05  249.92         160            160            9.5093015e-05  6397952      
     18500   0.21004159    -21.331148      0.31495645    -21.016191      2.1333956e-05  2.9797821e-05 -2.9934781e-05  246.8          160            160            7.0656653e-06  6318080      
     18600   0.20689813    -21.332054      0.31024284    -21.021811      0.000137084   -5.9519873e-05 -8.8275487e-06  243.68         160            160            2.2912194e-05  6238208      
     18700   0.19361063    -21.334742      0.29031829    -21.044424      0.0001218834   6.0120186e-05 -6.7334504e-05  240.56         160            160            3.8223028e-05  6158336      
     18800   0.1890419     -21.334948      0.2834675     -21.05148       0.00011361218 -5.7242039e-05 -3.7192857e-05  237.44         160            160            6.3924283e-06  6078464      
     18900   0.2011004     -21.33281       0.30154918    -21.031261      0.00015700424  0.0001472112   3.2415789e-06  234.32         160            160            0.00010248567  5998592      
     19000   0.21062572    -21.329385      0.31583234    -21.013553      0.00014895692  0.00012039358  0.00014907954  231.2          160            160            0.00013947668  5918720      
     19100   0.2034772     -21.332609      0.30511317    -21.027496      0.00011982955  1.2084857e-05  2.0481764e-05  228.08         160            160            5.0798722e-05  5838848      
     19200   0.18928212    -21.33365       0.28382771    -21.049822      0.00012959498  6.1434386e-05  0.0001168949   224.96         160            160            0.00010264142  5758976      
     19300   0.19315739    -21.335267      0.28963867    -21.045629      0.0001333539   7.7528059e-05  2.2620925e-05  221.84         160            160            7.7834296e-05  5679104      
     19400   0.20543935    -21.330323      0.3080554     -21.022268      7.8239033e-05 -7.3720203e-05  4.749107e-06   218.72         160            160            3.0893123e-06  5599232      
     19500   0.211124      -21.329464      0.31657952    -21.012884      0.00026265925  0.00011819466 -3.3121601e-05  215.6          160            160            0.00011591077  5519360      
     19600   0.19822609    -21.331484      0.29723916    -21.034244      0.00023974807  0.00013039725  9.4179708e-05  212.48         160            160            0.00015477501  5439488      
     19700   0.18970427    -21.33449       0.28446072    -21.050029      0.00017912886  0.00010189718  7.782315e-05   209.36         160            160            0.0001196164   5359616      
     19800   0.19631859    -21.33472       0.29437887    -21.040341      0.00020656167  2.5937148e-05  0.00014670458  206.24         160            160            0.00012640113  5279744      
     19900   0.20889949    -21.332821      0.31324387    -21.019577      0.00015116166  8.4744247e-05  4.3581155e-05  203.12         160            160            9.3162355e-05  5199872      
     20000   0.20767983    -21.33246       0.311415      -21.021045      0.00010106069 -2.6159736e-05  3.4360721e-05  200            160            160            3.6420558e-05  5120000      
Loop time of 4.86518 on 1 procs for 10000 steps with 2974 atoms

Performance: 177588.410 tau/day, 2055.421 timesteps/s, 6.113 Matom-step/s
99.9% CPU use with 1 MPI tasks x 1 OpenMP threads

MPI task timing breakdown:
Section |  min time  |  avg time  |  max time  |%varavg| %total
---------------------------------------------------------------
Pair    | 2.1825     | 2.1825     | 2.1825     |   0.0 | 44.86
Neigh   | 2.0191     | 2.0191     | 2.0191     |   0.0 | 41.50
Comm    | 0.068956   | 0.068956   | 0.068956   |   0.0 |  1.42
Output  | 0.010457   | 0.010457   | 0.010457   |   0.0 |  0.21
Modify  | 0.48615    | 0.48615    | 0.48615    |   0.0 |  9.99
Other   |            | 0.09799    |            |       |  2.01

Nlocal:           2974 ave        2974 max        2974 min
Histogram: 1 0 0 0 0 0 0 0 0 0
Nghost:            223 ave         223 max         223 min
Histogram: 1 0 0 0 0 0 0 0 0 0
Neighs:          21538 ave       21538 max       21538 min
Histogram: 1 0 0 0 0 0 0 0 0 0

Total # of neighbors = 21538
Ave neighs/atom = 7.2420982
Neighbor list builds = 909
Dangerous builds = 0
unfix           2
#############make the simulation box cubic############################################
variable        newsize equal (lx*ly*lz)^(1./3.)

fix             2 all deform 1 x final 0 ${newsize} y final 0 ${newsize} z final 0 ${newsize} units box
fix             2 all deform 1 x final 0 172.354775202551 y final 0 ${newsize} z final 0 ${newsize} units box
fix             2 all deform 1 x final 0 172.354775202551 y final 0 172.354775202551 z final 0 ${newsize} units box
fix             2 all deform 1 x final 0 172.354775202551 y final 0 172.354775202551 z final 0 172.354775202551 units box
run             10000#test!0
Generated 0 of 36 mixed pair_coeff terms from geometric mixing rule
Per MPI rank memory allocation (min/avg/max) = 19.53 | 19.53 | 19.53 Mbytes
   Step          Temp          PotEng         KinEng         TotEng          Pxx            Pyy            Pzz             Lx             Ly             Lz           Press          Volume    
     20000   0.20767983    -21.332472      0.311415      -21.021057      0.00013884007 -1.2544088e-05  4.9209114e-05  200            160            160            5.8501698e-05  5120000      
     20100   0.19489974    -21.330498      0.29225132    -21.038247      2.1275215e-05  7.6396825e-05  1.96251e-05    199.72355      160.12355      160.12355      3.9099047e-05  5120822      
     20200   0.1941666     -21.334261      0.29115197    -21.04311       0.00023894506  0.0002335456   0.00022236036  199.4471       160.2471       160.2471       0.00023161701  5121628.2    
     20300   0.19950614    -21.331424      0.29915859    -21.032266      1.7360263e-05  7.2096973e-05 -1.2234649e-05  199.17064      160.37064      160.37064      2.5740862e-05  5122418.6    
     20400   0.20786809    -21.331792      0.3116973     -21.020094      0.00014625486  9.6838305e-05  9.383423e-05   198.89419      160.49419      160.49419      0.00011230913  5123193.2    
     20500   0.20244837    -21.330551      0.30357045    -21.026981      0.0001812855   0.00010099353  2.4271956e-05  198.61774      160.61774      160.61774      0.00010218366  5123951.9    
     20600   0.19368755    -21.331516      0.29043364    -21.041082      6.5300838e-05  5.7582038e-05  3.0440797e-05  198.34129      160.74129      160.74129      5.1107891e-05  5124694.8    
     20700   0.19435754    -21.330944      0.29143828    -21.039506      0.00016674507  8.2815602e-05  0.00017088661  198.06483      160.86483      160.86483      0.00014014909  5125421.7    
     20800   0.2033353     -21.329543      0.3049004     -21.024643      0.00012051261  4.8842551e-05 -3.907451e-05   197.78838      160.98838      160.98838      4.3426883e-05  5126132.8    
     20900   0.20682199    -21.329174      0.31012867    -21.019045      0.00016494785  9.5121309e-05  0.00022004345  197.51193      161.11193      161.11193      0.00016003753  5126827.8    
     21000   0.19876922    -21.330019      0.29805357    -21.031965      0.00017490839  0.00011466268  5.1285014e-05  197.23548      161.23548      161.23548      0.0001136187   5127506.9    
     21100   0.19346081    -21.331862      0.29009364    -21.041769      7.4843671e-05  9.0474053e-05  4.8356019e-05  196.95903      161.35903      161.35903      7.1224581e-05  5128170      
     21200   0.19801266    -21.331012      0.29691911    -21.034093      0.00015449952  0.00011254677  1.418177e-05   196.68257      161.48257      161.48257      9.3742686e-05  5128817      
     21300   0.2057721     -21.328981      0.30855437    -21.020427      0.00020797723  5.9361471e-06  0.00012862472  196.40612      161.60612      161.60612      0.00011417936  5129448      
     21400   0.20474349    -21.328272      0.30701197    -21.02126       0.00012422416  0.00013907509  3.41382e-05    196.12967      161.72967      161.72967      9.9145819e-05  5130062.9    
     21500   0.19650955    -21.328128      0.29466521    -21.033463      0.00018661564 -9.7756088e-06  1.0298439e-05  195.85322      161.85322      161.85322      6.2379489e-05  5130661.7    
     21600   0.19390686    -21.328621      0.29076249    -21.037859      0.00029210264  5.9207587e-05  1.566476e-05   195.57676      161.97676      161.97676      0.000122325    5131244.3    
     21700   0.20049251    -21.328862      0.30063765    -21.028224      0.00016022804  0.0001325232  -7.1409538e-06  195.30031      162.10031      162.10031      9.5203431e-05  5131810.8    
     21800   0.20413834    -21.325294      0.30610454    -21.019189      0.00010384989 -1.2623068e-05  7.1008271e-06  195.02386      162.22386      162.22386      3.2775885e-05  5132361.1    
     21900   0.20207207    -21.327476      0.30300619    -21.02447       0.00020809802  7.8542432e-05 -2.9358144e-06  194.74741      162.34741      162.34741      9.4568214e-05  5132895.2    
     22000   0.19546654    -21.328453      0.29310123    -21.035352      0.00022066784  0.00013387463  0.00010701072  194.47096      162.47096      162.47096      0.00015385106  5133413.1    
     22100   0.19690596    -21.329715      0.29525962    -21.034455      0.00010723173  9.7638077e-05 -2.0197245e-05  194.1945       162.5945       162.5945       6.155752e-05   5133914.7    
     22200   0.20272001    -21.326494      0.30397777    -21.022517      0.00011980597  1.898141e-06   5.6954396e-05  193.91805      162.71805      162.71805      5.9552835e-05  5134400      
     22300   0.2049769     -21.32578       0.30736196    -21.018418      3.2838052e-05  2.4222843e-05 -9.450516e-05   193.6416       162.8416       162.8416      -1.2481422e-05  5134869      
     22400   0.19960607    -21.327514      0.29930843    -21.028205      0.00015560176  3.3201059e-05  8.4952894e-05  193.36515      162.96515      162.96515      9.1251903e-05  5135321.7    
     22500   0.19437443    -21.329029      0.29146361    -21.037565      7.3212247e-05 -0.00011663102 -8.8040631e-05  193.08869      163.08869      163.08869     -4.3819801e-05  5135758      
     22600   0.19732013    -21.327849      0.29588068    -21.031969      7.1420918e-05 -1.9176157e-05 -2.6460896e-05  192.81224      163.21224      163.21224      8.5946216e-06  5136178      
     22700   0.20463433    -21.326137      0.30684828    -21.019289      7.3521512e-05  4.4265587e-05 -9.9336977e-06  192.53579      163.33579      163.33579      3.5951134e-05  5136581.5    
     22800   0.20501536    -21.326983      0.30741963    -21.019563      0.00019478867  8.1765875e-05  1.9864058e-05  192.25934      163.45934      163.45934      9.8806201e-05  5136968.6    
     22900   0.19660848    -21.327871      0.29481355    -21.033058      5.4862055e-06 -1.3570065e-05 -4.2344556e-05  191.98288      163.58288      163.58288     -1.6809472e-05  5137339.2    
     23000   0.193935      -21.32869       0.29080469    -21.037886      0.00011626672  6.0974415e-05  0.00011284175  191.70643      163.70643      163.70643      9.6694295e-05  5137693.3    
     23100   0.20069966    -21.327515      0.30094826    -21.026566      0.00011569419  0.00010550042  2.2669252e-05  191.42998      163.82998      163.82998      8.1287957e-05  5138030.9    
     23200   0.20677502    -21.325509      0.31005824    -21.015451      7.8368384e-05  4.7051085e-05  5.7940408e-05  191.15353      163.95353      163.95353      6.1119959e-05  5138352      
     23300   0.20329833    -21.325279      0.30484496    -21.020434      0.00017484113  0.00012118495  0.00013407232  190.87708      164.07708      164.07708      0.00014336613  5138656.5    
     23400   0.19531133    -21.327008      0.29286848    -21.034139      0.00012814584  0.00017119416  0.0001461867   190.60062      164.20062      164.20062      0.0001485089   5138944.4    
     23500   0.19417425    -21.325737      0.29116345    -21.034573      0.00010496354  2.3742949e-05  5.4917621e-05  190.32417      164.32417      164.32417      6.1208038e-05  5139215.7    
     23600   0.20256072    -21.325412      0.30373892    -21.021674      0.00017465186  0.00014382236  0.00018608068  190.04772      164.44772      164.44772      0.00016818497  5139470.4    
     23700   0.2066427     -21.325381      0.30985983    -21.015521     -2.5457591e-06  3.429064e-05  -0.00019986813  189.77127      164.57127      164.57127     -5.6041084e-05  5139708.4    
     23800   0.20055349    -21.326255      0.30072908    -21.025526      7.2865852e-05  1.0572245e-05  5.5070797e-05  189.49481      164.69481      164.69481      4.6169631e-05  5139929.7    
     23900   0.19330634    -21.32596       0.28986201    -21.036098      0.00021790571  0.00014133391  3.9667825e-05  189.21836      164.81836      164.81836      0.00013296915  5140134.3    
     24000   0.1970131     -21.326164      0.29542028    -21.030744      0.00016686774  0.00010513251  0.00011166238  188.94191      164.94191      164.94191      0.00012788755  5140322.2    
     24100   0.20601094    -21.325996      0.30891251    -21.017084      0.00018791788  0.00013002966  5.7281496e-05  188.66546      165.06546      165.06546      0.00012507635  5140493.3    
     24200   0.2048399     -21.324792      0.30715653    -21.017636      0.00012687617  6.2948359e-05  0.00010694008  188.38901      165.18901      165.18901      9.8921537e-05  5140647.6    
     24300   0.19724241    -21.325798      0.29576413    -21.030034      7.0304658e-05  0.0002396774   8.2098024e-05  188.11255      165.31255      165.31255      0.00013069336  5140785.1    
     24400   0.19522669    -21.326058      0.29274157    -21.033316      0.00020848414  5.6526958e-05  0.00016264764  187.8361       165.4361       165.4361       0.00014255291  5140905.7    
     24500   0.19957664    -21.322087      0.29926431    -21.022823      8.8880482e-05  6.0367699e-05  0.00010128206  187.55965      165.55965      165.55965      8.3510082e-05  5141009.5    
     24600   0.20706799    -21.322143      0.31049755    -21.011645      0.00017170494  0.00022889495  0.00015057213  187.2832       165.6832       165.6832       0.00018372401  5141096.4    
     24700   0.20188601    -21.321345      0.3027272     -21.018618      0.00015525472  0.00010767511 -8.2994977e-08  187.00674      165.80674      165.80674      8.761561e-05   5141166.3    
     24800   0.19479242    -21.324529      0.29209039    -21.032439      6.9300666e-05  0.000136791    0.00010332618  186.73029      165.93029      165.93029      0.00010313928  5141219.3    
     24900   0.19521745    -21.326186      0.29272771    -21.033458      0.00012601527 -1.42702e-06    4.5802516e-05  186.45384      166.05384      166.05384      5.679692e-05   5141255.4    
     25000   0.20219284    -21.324337      0.30318728    -21.02115       0.00014484283  2.7941139e-05  3.9838398e-05  186.17739      166.17739      166.17739      7.0874122e-05  5141274.4    
     25100   0.20577537    -21.322043      0.30855926    -21.013483      0.00010534812  1.4563925e-05  7.4330387e-05  185.90094      166.30094      166.30094      6.4747479e-05  5141276.5    
     25200   0.19913963    -21.320289      0.29860901    -21.02168       0.00012900732  2.1029998e-06  2.7909117e-05  185.62448      166.42448      166.42448      5.3006481e-05  5141261.5    
     25300   0.19495194    -21.323866      0.29232959    -21.031536      0.00016329632 -9.5710821e-06  3.1746688e-05  185.34803      166.54803      166.54803      6.1823975e-05  5141229.4    
     25400   0.19740498    -21.325086      0.2960079     -21.029078      9.6397217e-05  4.7104385e-05  0.00014518089  185.07158      166.67158      166.67158      9.6227497e-05  5141180.2    
     25500   0.20362293    -21.323343      0.3053317     -21.018011      0.0001034811   9.0402404e-05  0.00014488049  184.79513      166.79513      166.79513      0.00011292133  5141113.9    
     25600   0.20657918    -21.324584      0.30976458    -21.014819      0.00012961513  3.6619891e-05  0.00011158037  184.51867      166.91867      166.91867      9.260513e-05   5141030.5    
     25700   0.19899058    -21.323018      0.2983855     -21.024633      0.00027513074  0.00011007622  3.0486689e-05  184.24222      167.04222      167.04222      0.00013856455  5140929.9    
     25800   0.19473685    -21.322855      0.29200706    -21.030848      8.4387085e-06  0.00016795373  0.00011445645  183.96577      167.16577      167.16577      9.694963e-05   5140812      
     25900   0.19872231    -21.321822      0.29798324    -21.023839      4.5380527e-05 -4.60673e-05   -2.3843176e-05  183.68932      167.28932      167.28932     -8.1766497e-06  5140677      
     26000   0.206081      -21.32212       0.30901756    -21.013102      4.6469405e-05 -2.7018112e-05  0.00010378917  183.41287      167.41287      167.41287      4.1080156e-05  5140524.7    
     26100   0.20258047    -21.319828      0.30376853    -21.016059      0.00021800791  0.00011718938  0.00014030678  183.13641      167.53641      167.53641      0.00015850136  5140355.2    
     26200   0.19512731    -21.321066      0.29259255    -21.028473      3.8930695e-05  7.9699665e-05 -4.2498046e-05  182.85996      167.65996      167.65996      2.5377438e-05  5140168.3    
     26300   0.19505471    -21.322078      0.29248369    -21.029594      0.00020146892  0.00015488487  0.00015005005  182.58351      167.78351      167.78351      0.00016880128  5139964.2    
     26400   0.20076463    -21.320459      0.30104568    -21.019414      0.0002394917   0.00013113996  7.0380221e-05  182.30706      167.90706      167.90706      0.00014700396  5139742.6    
     26500   0.20536875    -21.320591      0.30794954    -21.012642      5.1276066e-05  1.1917795e-05  0.00014630786  182.0306       168.0306       168.0306       6.9833907e-05  5139503.7    
     26600   0.20110491    -21.320178      0.30155593    -21.018622      0.00010024255  0.00012205871  4.0538639e-05  181.75415      168.15415      168.15415      8.7613298e-05  5139247.4    
     26700   0.19544397    -21.320901      0.29306738    -21.027834      0.00012509621  3.7444701e-05  5.7521004e-06  181.4777       168.2777       168.2777       5.6097671e-05  5138973.7    
     26800   0.1981775     -21.323531      0.2971663     -21.026365      6.7973138e-05  4.1625552e-05  7.9576456e-05  181.20125      168.40125      168.40125      6.3058382e-05  5138682.6    
     26900   0.20261417    -21.320777      0.30381907    -21.016958      0.00013557842  5.2363077e-05 -1.3439227e-07  180.92479      168.52479      168.52479      6.2602367e-05  5138373.9    
     27000   0.2034091     -21.317787      0.30501105    -21.012776      0.00011806817 -3.7867275e-05  5.2574275e-05  180.64834      168.64834      168.64834      4.4258391e-05  5138047.8    
     27100   0.20044162    -21.320006      0.30056133    -21.019444      3.2861598e-05 -2.1739539e-05  1.9161295e-05  180.37189      168.77189      168.77189      1.0094452e-05  5137704.1    
     27200   0.19806097    -21.322816      0.29699156    -21.025824      7.9243512e-05  0.00012131049  9.9088347e-05  180.09544      168.89544      168.89544      9.9880782e-05  5137342.9    
     27300   0.19821876    -21.320804      0.29722817    -21.023575      0.0002012573   0.00011861929  0.00010676371  179.81899      169.01899      169.01899      0.00014221343  5136964.1    
     27400   0.20171494    -21.318203      0.30247066    -21.015733      0.00021642803  6.7976693e-05  0.00023748375  179.54253      169.14253      169.14253      0.00017396282  5136567.7    
     27500   0.20391168    -21.318802      0.30576467    -21.013037      6.7459278e-05  0.00016392512 -1.5048019e-05  179.26608      169.26608      169.26608      7.2112126e-05  5136153.6    
     27600   0.20070809    -21.321351      0.30096091    -21.02039       0.00018344956  7.8426658e-05  0.00019194174  178.98963      169.38963      169.38963      0.00015127265  5135721.9    
     27700   0.19505866    -21.318506      0.2924896     -21.026017      0.00016745311  7.8960979e-05  0.00012564004  178.71318      169.51318      169.51318      0.00012401804  5135272.6    
     27800   0.20044077    -21.320437      0.30056005    -21.019877      0.00013487472 -1.7388686e-05 -1.9873557e-05  178.43672      169.63672      169.63672      3.2537492e-05  5134805.5    
     27900   0.2053748     -21.319177      0.30795862    -21.011218      0.00017857839  0.00010551346  0.0001078632   178.16027      169.76027      169.76027      0.00013065168  5134320.7    
     28000   0.20246922    -21.318269      0.30360172    -21.014667      6.6322971e-05 -6.3595642e-05 -6.5332826e-05  177.88382      169.88382      169.88382     -2.0868499e-05  5133818.2    
     28100   0.19551812    -21.316641      0.29317857    -21.023462      1.3098079e-06  6.5783914e-05  7.2957351e-05  177.60737      170.00737      170.00737      4.6683691e-05  5133297.9    
     28200   0.19668339    -21.318224      0.29492589    -21.023298      0.00016859704  0.00017600434  7.0464854e-05  177.33092      170.13092      170.13092      0.00013835541  5132759.7    
     28300   0.20108969    -21.317092      0.30153311    -21.015559      0.00018640805  9.3527048e-06  7.8330461e-05  177.05446      170.25446      170.25446      9.1363738e-05  5132203.8    
     28400   0.2039073     -21.316503      0.30575811    -21.010745      8.3305925e-05  6.8645265e-05  6.0110545e-05  176.77801      170.37801      170.37801      7.0687245e-05  5131630      
     28500   0.20121665    -21.316555      0.30172348    -21.014832      0.00018669847 -7.828061e-05   0.00012714616  176.50156      170.50156      170.50156      7.8521342e-05  5131038.3    
     28600   0.19766864    -21.31782       0.29640326    -21.021417      0.00015778627  0.0001395351   3.1736213e-05  176.22511      170.62511      170.62511      0.00010968586  5130428.7    
     28700   0.19779302    -21.317853      0.29658977    -21.021263      5.9501388e-05 -0.00012209752  0.00011926129  175.94865      170.74865      170.74865      1.8888385e-05  5129801.1    
     28800   0.2015162     -21.31642       0.30217266    -21.014247     -9.7234489e-06  7.6201873e-05 -8.2216612e-05  175.6722       170.8722       170.8722      -5.2460624e-06  5129155.7    
     28900   0.20271248    -21.314788      0.30396648    -21.010821      0.00017658866 -6.1301269e-05  1.9373052e-05  175.39575      170.99575      170.99575      4.4886813e-05  5128492.2    
     29000   0.19849296    -21.315029      0.29763933    -21.01739       5.1400218e-05  0.0001195664   5.6014441e-05  175.1193       171.1193       171.1193       7.5660354e-05  5127810.7    
     29100   0.19711923    -21.318265      0.29557943    -21.022686      0.00016171859 -6.6535065e-05 -2.3158435e-06  174.84285      171.24285      171.24285      3.0955894e-05  5127111.2    
     29200   0.19893579    -21.316947      0.29830335    -21.018644      0.00012678043  8.8299515e-05  9.0446832e-05  174.56639      171.36639      171.36639      0.00010184226  5126393.6    
     29300   0.20083455    -21.312701      0.30115053    -21.011551      0.00011711892  7.7047155e-05  7.0829319e-05  174.28994      171.48994      171.48994      8.8331798e-05  5125658      
     29400   0.20379456    -21.316942      0.30558905    -21.011353      0.00014322412  0.00022548498  7.9624433e-05  174.01349      171.61349      171.61349      0.00014944451  5124904.2    
     29500   0.19753676    -21.314127      0.2962055     -21.017921      0.00022226411  0.00017303434  0.000175868    173.73704      171.73704      171.73704      0.00019038882  5124132.3    
     29600   0.19573178    -21.314716      0.29349895    -21.021217      0.00013125826  0.00021387481  0.00020818422  173.46058      171.86058      171.86058      0.0001844391   5123342.3    
     29700   0.20044585    -21.317081      0.30056768    -21.016514      0.00013030984  0.0001808034   0.00012235232  173.18413      171.98413      171.98413      0.00014448852  5122534.1    
     29800   0.20240088    -21.314453      0.30349924    -21.010954      6.3847651e-05  5.4803586e-06 -2.1192484e-05  172.90768      172.10768      172.10768      1.6045175e-05  5121707.6    
     29900   0.20193822    -21.315586      0.30280548    -21.012781     -3.0439626e-05  3.9469632e-05  7.9050159e-05  172.63123      172.23123      172.23123      2.9360055e-05  5120862.9    
     30000   0.19797319    -21.315521      0.29685993    -21.018661      1.3073432e-05  1.237941e-05   6.7473532e-05  172.35478      172.35478      172.35478      3.0975458e-05  5120000      
Loop time of 3.14596 on 1 procs for 10000 steps with 2974 atoms

Performance: 274637.565 tau/day, 3178.676 timesteps/s, 9.453 Matom-step/s
99.9% CPU use with 1 MPI tasks x 1 OpenMP threads

MPI task timing breakdown:
Section |  min time  |  avg time  |  max time  |%varavg| %total
---------------------------------------------------------------
Pair    | 2.1854     | 2.1854     | 2.1854     |   0.0 | 69.47
Neigh   | 0.27189    | 0.27189    | 0.27189    |   0.0 |  8.64
Comm    | 0.043914   | 0.043914   | 0.043914   |   0.0 |  1.40
Output  | 0.010592   | 0.010592   | 0.010592   |   0.0 |  0.34
Modify  | 0.52527    | 0.52527    | 0.52527    |   0.0 | 16.70
Other   |            | 0.1089     |            |       |  3.46

Nlocal:           2974 ave        2974 max        2974 min
Histogram: 1 0 0 0 0 0 0 0 0 0
Nghost:            193 ave         193 max         193 min
Histogram: 1 0 0 0 0 0 0 0 0 0
Neighs:          20976 ave       20976 max       20976 min
Histogram: 1 0 0 0 0 0 0 0 0 0

Total # of neighbors = 20976
Ave neighs/atom = 7.0531271
Neighbor list builds = 137
Dangerous builds = 0
unfix           2
#############replicate the system
#Note that this system is much more dilute than the desired density of 1 unit per 1000 volume, by a factor of 320!
# Original system is 72 4 4
# Small test sample 4 1 1
#replicate       72 4 4   #replicate into 1152 chains
replicate		8 2 2
Replication is creating a 8x2x2 = 32 times larger system...
  orthogonal box = (0 0 0) to (1378.8382 344.70955 344.70955)
  1 by 1 by 1 MPI processor grid
  95168 atoms
  replicate CPU = 0.012 seconds
velocity        all create ${tf} 9936    #add velocity
velocity        all create 0.2 9936    


#############high temp relaxation##########################################
unfix           1
fix             1 all nvt temp ${tf} ${tf} 0.1
fix             1 all nvt temp 0.2 ${tf} 0.1
fix             1 all nvt temp 0.2 0.2 0.1
run             70000#test!0
Generated 0 of 36 mixed pair_coeff terms from geometric mixing rule
Per MPI rank memory allocation (min/avg/max) = 182.6 | 182.6 | 182.6 Mbytes
   Step          Temp          PotEng         KinEng         TotEng          Pxx            Pyy            Pzz             Lx             Ly             Lz           Press          Volume    
     30000   0.2           -21.315523      0.29999685    -21.015526     -1.4468397e-05  2.1335504e-05  9.197262e-05   1378.8382      344.70955      344.70955      3.2946576e-05  1.6384e+08   
     30100   0.18518188    -21.284828      0.2777699     -21.007058     -4.7629921e-05  6.1544498e-05  0.00014331844  1378.8382      344.70955      344.70955      5.2411005e-05  1.6384e+08   
     30200   0.19136977    -21.282933      0.28705164    -20.995882      7.3657734e-05  7.5943839e-06  4.4037691e-05  1378.8382      344.70955      344.70955      4.176327e-05   1.6384e+08   
     30300   0.19608511    -21.279778      0.29412457    -20.985653      5.6434162e-05  7.2702422e-05  7.8151393e-05  1378.8382      344.70955      344.70955      6.9095992e-05  1.6384e+08   
     30400   0.19957984    -21.277223      0.29936661    -20.977857      6.6647637e-06 -3.9775792e-05 -3.070457e-05   1378.8382      344.70955      344.70955     -2.1271866e-05  1.6384e+08   
     30500   0.20179147    -21.27588       0.30268402    -20.973196      9.4421826e-06  1.8287629e-05  2.9748489e-05  1378.8382      344.70955      344.70955      1.9159434e-05  1.6384e+08   
     30600   0.20160278    -21.276592      0.302401      -20.974191      9.737575e-05   5.7902176e-05  5.0920685e-05  1378.8382      344.70955      344.70955      6.873287e-05   1.6384e+08   
     30700   0.19898321    -21.276908      0.29847169    -20.978436      4.1021222e-05  4.4916682e-05  3.0300213e-05  1378.8382      344.70955      344.70955      3.8746039e-05  1.6384e+08   
     30800   0.19881599    -21.27777       0.29822085    -20.979549      7.3426838e-05  8.1192533e-05  8.2526921e-05  1378.8382      344.70955      344.70955      7.9048764e-05  1.6384e+08   
     30900   0.19930838    -21.276125      0.29895943    -20.977166      6.9631389e-05  8.1923926e-05  5.2041234e-05  1378.8382      344.70955      344.70955      6.7865516e-05  1.6384e+08   
     31000   0.20082157    -21.275569      0.30122918    -20.97434       3.5245095e-05  5.4822313e-05  5.972068e-05   1378.8382      344.70955      344.70955      4.9929363e-05  1.6384e+08   
     31100   0.2010221     -21.275739      0.30152997    -20.974209      8.6652553e-05  9.0854019e-05  7.247142e-05   1378.8382      344.70955      344.70955      8.3325998e-05  1.6384e+08   
     31200   0.19933573    -21.275887      0.29900045    -20.976886      7.5975849e-05  6.8396511e-05  4.2056236e-05  1378.8382      344.70955      344.70955      6.2142865e-05  1.6384e+08   
     31300   0.19844302    -21.2759        0.2976614     -20.978239      8.2996399e-05  5.9873734e-05  8.0375749e-05  1378.8382      344.70955      344.70955      7.4415294e-05  1.6384e+08   
     31400   0.19994823    -21.276291      0.2999192     -20.976371      7.130338e-05   8.7786753e-05  7.8467601e-05  1378.8382      344.70955      344.70955      7.9185911e-05  1.6384e+08   
     31500   0.20133145    -21.276085      0.301994      -20.974091      9.7871491e-05  5.2631848e-05  5.6821244e-05  1378.8382      344.70955      344.70955      6.9108194e-05  1.6384e+08   
     31600   0.20062631    -21.275568      0.3009363     -20.974632      9.4349161e-05  6.4124539e-05  0.00011486584  1378.8382      344.70955      344.70955      9.1113181e-05  1.6384e+08   
     31700   0.19927329    -21.275501      0.2989068     -20.976594      8.9279706e-05  0.00011483564  9.0436689e-05  1378.8382      344.70955      344.70955      9.8184013e-05  1.6384e+08   
     31800   0.19948211    -21.276236      0.29922002    -20.977016      7.4869527e-05  6.7499149e-05  5.1801762e-05  1378.8382      344.70955      344.70955      6.4723479e-05  1.6384e+08   
     31900   0.19940558    -21.274865      0.29910523    -20.97576       6.4442533e-05  6.0913375e-05  4.6492438e-05  1378.8382      344.70955      344.70955      5.7282782e-05  1.6384e+08   
     32000   0.200197      -21.274318      0.30029234    -20.974025      6.5260314e-05  4.5345264e-05  7.612048e-05   1378.8382      344.70955      344.70955      6.2242019e-05  1.6384e+08   
     32100   0.20087733    -21.275355      0.30131283    -20.974042      9.1967692e-05  5.7840864e-05  8.1433899e-05  1378.8382      344.70955      344.70955      7.7080818e-05  1.6384e+08   
     32200   0.19972847    -21.275279      0.29958956    -20.97569       8.3852657e-05  0.00010628608  0.0001100727   1378.8382      344.70955      344.70955      0.00010007048  1.6384e+08   
     32300   0.19899647    -21.274921      0.29849157    -20.97643       8.5279655e-05  6.7989568e-05  5.5395629e-05  1378.8382      344.70955      344.70955      6.9554951e-05  1.6384e+08   
     32400   0.199267      -21.274107      0.29889736    -20.97521       5.124914e-05   4.0480527e-05  8.1221496e-05  1378.8382      344.70955      344.70955      5.7650388e-05  1.6384e+08   
     32500   0.2004528     -21.274421      0.30067604    -20.973745      6.6938773e-05  6.8216194e-05  6.6390793e-05  1378.8382      344.70955      344.70955      6.718192e-05   1.6384e+08   
     32600   0.20079252    -21.27492       0.30118562    -20.973734      7.0202166e-05  5.3545678e-05  6.499352e-05   1378.8382      344.70955      344.70955      6.2913788e-05  1.6384e+08   
     32700   0.19991871    -21.275086      0.29987492    -20.975211      7.2505215e-05  8.3283155e-05  9.0178234e-05  1378.8382      344.70955      344.70955      8.1988868e-05  1.6384e+08   
     32800   0.19909671    -21.274635      0.29864192    -20.975993      5.4659236e-05  7.3396817e-05  5.916952e-05   1378.8382      344.70955      344.70955      6.2408524e-05  1.6384e+08   
     32900   0.19983782    -21.2747        0.29975357    -20.974947      4.6064602e-05  5.4569729e-05  8.9593776e-05  1378.8382      344.70955      344.70955      6.3409369e-05  1.6384e+08   
     33000   0.20058536    -21.27443       0.30087488    -20.973555      5.6988655e-05  4.6526548e-05  3.4416703e-05  1378.8382      344.70955      344.70955      4.5977302e-05  1.6384e+08   
     33100   0.20012114    -21.273544      0.30017855    -20.973366      4.0313621e-05  4.8731141e-05  5.7402732e-05  1378.8382      344.70955      344.70955      4.8815831e-05  1.6384e+08   
     33200   0.20006795    -21.274428      0.30009878    -20.974329      4.0471474e-05  5.2409255e-05  4.0612203e-05  1378.8382      344.70955      344.70955      4.4497644e-05  1.6384e+08   
     33300   0.19906125    -21.273976      0.29858873    -20.975387      6.9245182e-05  6.0242141e-05  5.7161722e-05  1378.8382      344.70955      344.70955      6.2216348e-05  1.6384e+08   
     33400   0.19966467    -21.274242      0.29949387    -20.974748      7.6048278e-05  4.7387186e-05  4.7297275e-05  1378.8382      344.70955      344.70955      5.6910913e-05  1.6384e+08   
     33500   0.20083556    -21.274344      0.30125018    -20.973094      7.990507e-05   6.227312e-05   8.6432431e-05  1378.8382      344.70955      344.70955      7.620354e-05   1.6384e+08   
     33600   0.20070226    -21.273904      0.30105023    -20.972853      0.00011894392  9.6641607e-05  9.4152809e-05  1378.8382      344.70955      344.70955      0.00010324611  1.6384e+08   
     33700   0.19959118    -21.273597      0.29938362    -20.974213      7.1921596e-05  5.483012e-05   6.5311378e-05  1378.8382      344.70955      344.70955      6.4021031e-05  1.6384e+08   
     33800   0.19914642    -21.273398      0.29871649    -20.974682      7.5443257e-05  5.2308244e-05  6.1501153e-05  1378.8382      344.70955      344.70955      6.3084218e-05  1.6384e+08   
     33900   0.20009974    -21.273588      0.30014645    -20.973442      6.4729022e-05  4.7685281e-05  8.1535388e-05  1378.8382      344.70955      344.70955      6.4649897e-05  1.6384e+08   
     34000   0.20034067    -21.273021      0.30050785    -20.972513      7.3660263e-05  5.5836957e-05  4.5377586e-05  1378.8382      344.70955      344.70955      5.8291602e-05  1.6384e+08   
     34100   0.20050218    -21.273484      0.30075011    -20.972733      7.1419584e-05  8.9466462e-05  0.00010146254  1378.8382      344.70955      344.70955      8.744953e-05   1.6384e+08   
     34200   0.20008648    -21.274055      0.30012656    -20.973928      6.0109216e-05  6.0407537e-05  7.1479523e-05  1378.8382      344.70955      344.70955      6.3998759e-05  1.6384e+08   
     34300   0.19969427    -21.273604      0.29953826    -20.974065      7.5692347e-05  9.3062056e-05  6.8341252e-05  1378.8382      344.70955      344.70955      7.9031885e-05  1.6384e+08   
     34400   0.20052851    -21.273536      0.30078961    -20.972746      5.7032699e-05  7.6194816e-05  7.045149e-05   1378.8382      344.70955      344.70955      6.7893002e-05  1.6384e+08   
     34500   0.20071734    -21.272974      0.30107285    -20.971901      6.6070261e-05  7.226437e-05   6.2031496e-05  1378.8382      344.70955      344.70955      6.6788709e-05  1.6384e+08   
     34600   0.20044716    -21.27309       0.30066758    -20.972422      3.9972642e-05  6.4714747e-05  7.700608e-05   1378.8382      344.70955      344.70955      6.056449e-05   1.6384e+08   
     34700   0.19972817    -21.273606      0.29958911    -20.974017      7.5418246e-05  6.7205053e-05  5.2321292e-05  1378.8382      344.70955      344.70955      6.498153e-05   1.6384e+08   
     34800   0.19899292    -21.272205      0.29848624    -20.973719      3.3232775e-05  3.8577563e-05  5.0051831e-05  1378.8382      344.70955      344.70955      4.0620723e-05  1.6384e+08   
     34900   0.20013844    -21.272619      0.30020451    -20.972414      7.9387032e-05  0.00010610117  9.6002382e-05  1378.8382      344.70955      344.70955      9.3830196e-05  1.6384e+08   
     35000   0.20030833    -21.272642      0.30045934    -20.972183      9.5941935e-05  9.8123366e-05  5.9353929e-05  1378.8382      344.70955      344.70955      8.4473077e-05  1.6384e+08   
     35100   0.19993483    -21.272556      0.29989909    -20.972657      6.1956996e-05  4.8083219e-05  5.2136949e-05  1378.8382      344.70955      344.70955      5.4059054e-05  1.6384e+08   
     35200   0.19956723    -21.272748      0.2993477     -20.9734        3.8927808e-05  4.1632818e-05  5.7632768e-05  1378.8382      344.70955      344.70955      4.6064464e-05  1.6384e+08   
     35300   0.19917433    -21.273469      0.29875835    -20.97471       5.2590728e-05  4.704435e-05   5.7433699e-05  1378.8382      344.70955      344.70955      5.2356259e-05  1.6384e+08   
     35400   0.19913548    -21.272174      0.29870008    -20.973474      7.5381401e-05  6.0534412e-05  8.9494155e-05  1378.8382      344.70955      344.70955      7.5136656e-05  1.6384e+08   
     35500   0.20018484    -21.271965      0.3002741     -20.971691      6.8639331e-05  0.00010152732  0.00010100533  1378.8382      344.70955      344.70955      9.0390661e-05  1.6384e+08   
     35600   0.20095401    -21.272666      0.30142784    -20.971239      6.5493524e-05  9.5213713e-05  0.00010290963  1378.8382      344.70955      344.70955      8.7872288e-05  1.6384e+08   
     35700   0.19974595    -21.271688      0.29961577    -20.972072      7.322477e-05   8.0563461e-05  5.8490584e-05  1378.8382      344.70955      344.70955      7.0759605e-05  1.6384e+08   
     35800   0.19932215    -21.271844      0.29898008    -20.972864      6.2289469e-05  3.9770949e-05  5.6154395e-05  1378.8382      344.70955      344.70955      5.2738271e-05  1.6384e+08   
     35900   0.19963194    -21.271614      0.29944476    -20.97217       7.7271216e-05  7.3501235e-05  4.6031179e-05  1378.8382      344.70955      344.70955      6.560121e-05   1.6384e+08   
     36000   0.20054401    -21.270611      0.30081285    -20.969798      4.5374113e-05  1.9138726e-05  2.971101e-05   1378.8382      344.70955      344.70955      3.140795e-05   1.6384e+08   
     36100   0.20095018    -21.271535      0.30142211    -20.970113      7.1147271e-05  7.1657229e-05  5.8332857e-05  1378.8382      344.70955      344.70955      6.7045786e-05  1.6384e+08   
     36200   0.20003983    -21.271683      0.30005659    -20.971627      9.0720389e-05  8.142796e-05   8.096058e-05   1378.8382      344.70955      344.70955      8.4369643e-05  1.6384e+08   
     36300   0.19972123    -21.271421      0.2995787     -20.971842      5.6485876e-05  7.3915722e-05  6.9054319e-05  1378.8382      344.70955      344.70955      6.6485306e-05  1.6384e+08   
     36400   0.19967393    -21.270751      0.29950774    -20.971243      9.1822075e-05  7.671046e-05   7.3718561e-05  1378.8382      344.70955      344.70955      8.0750365e-05  1.6384e+08   
     36500   0.20067263    -21.271001      0.30100578    -20.969995      7.8260308e-05  8.3437296e-05  7.3324379e-05  1378.8382      344.70955      344.70955      7.8340661e-05  1.6384e+08   
     36600   0.20030428    -21.27027       0.30045327    -20.969817      8.862114e-05   6.7933557e-05  8.7310592e-05  1378.8382      344.70955      344.70955      8.128843e-05   1.6384e+08   
     36700   0.19958626    -21.271217      0.29937624    -20.971841      3.6686713e-05  5.6728111e-05  5.4302702e-05  1378.8382      344.70955      344.70955      4.9239175e-05  1.6384e+08   
     36800   0.19981873    -21.271571      0.29972494    -20.971846      7.701281e-05   3.2485544e-05  4.1454318e-05  1378.8382      344.70955      344.70955      5.0317557e-05  1.6384e+08   
     36900   0.19999152    -21.270525      0.29998412    -20.97054       6.1604683e-05  4.2842407e-05  7.743605e-05   1378.8382      344.70955      344.70955      6.0627713e-05  1.6384e+08   
     37000   0.20051957    -21.270347      0.3007762     -20.969571      5.5733473e-05  5.7360876e-05  8.659984e-05   1378.8382      344.70955      344.70955      6.656473e-05   1.6384e+08   
     37100   0.19963458    -21.270251      0.29944873    -20.970802      5.5586949e-05  6.9988067e-05  6.5468342e-05  1378.8382      344.70955      344.70955      6.3681119e-05  1.6384e+08   
     37200   0.19922059    -21.270932      0.29882775    -20.972104      9.1212701e-05  8.3069039e-05  9.9515263e-05  1378.8382      344.70955      344.70955      9.1265668e-05  1.6384e+08   
     37300   0.19952194    -21.270318      0.29927976    -20.971038      6.9955225e-05  5.736999e-05   6.5312344e-05  1378.8382      344.70955      344.70955      6.421252e-05   1.6384e+08   
     37400   0.20033558    -21.270241      0.30050021    -20.969741      5.8569904e-05  8.7362397e-05  7.6624123e-05  1378.8382      344.70955      344.70955      7.4185475e-05  1.6384e+08   
     37500   0.20032789    -21.270232      0.30048867    -20.969744      0.00012044049  7.582601e-05   7.2956387e-05  1378.8382      344.70955      344.70955      8.9740961e-05  1.6384e+08   
     37600   0.19972707    -21.270464      0.29958746    -20.970877      5.8711157e-05  5.5440687e-05  2.6998539e-05  1378.8382      344.70955      344.70955      4.7050128e-05  1.6384e+08   
     37700   0.19946985    -21.2704        0.29920163    -20.971199      5.653442e-05   6.8089522e-05  6.570888e-05   1378.8382      344.70955      344.70955      6.3444274e-05  1.6384e+08   
     37800   0.20087863    -21.269948      0.30131478    -20.968633      8.1636577e-05  6.7811992e-05  4.943302e-05   1378.8382      344.70955      344.70955      6.6293863e-05  1.6384e+08   
     37900   0.20080141    -21.269305      0.30119895    -20.968106      8.7210274e-05  4.2080699e-05  5.8692793e-05  1378.8382      344.70955      344.70955      6.2661255e-05  1.6384e+08   
     38000   0.19999044    -21.269756      0.2999825     -20.969774      4.3590965e-05  3.7189e-05     5.2576881e-05  1378.8382      344.70955      344.70955      4.4452282e-05  1.6384e+08   
     38100   0.19976074    -21.269923      0.29963797    -20.970285      8.2336477e-05  6.1360083e-05  7.2502326e-05  1378.8382      344.70955      344.70955      7.2066295e-05  1.6384e+08   
     38200   0.20020363    -21.2703        0.30030229    -20.969997      8.124347e-05   1.0553968e-05  6.5807868e-05  1378.8382      344.70955      344.70955      5.2535102e-05  1.6384e+08   
     38300   0.20023029    -21.269368      0.30034228    -20.969026      8.0895011e-05  8.013637e-05   5.7992654e-05  1378.8382      344.70955      344.70955      7.3008012e-05  1.6384e+08   
     38400   0.20072412    -21.268966      0.30108302    -20.967883      6.1631249e-05  3.9742955e-05  6.4804846e-05  1378.8382      344.70955      344.70955      5.5393017e-05  1.6384e+08   
     38500   0.20055104    -21.26985       0.3008234     -20.969027      5.0918698e-05  5.7090849e-05  5.9726678e-05  1378.8382      344.70955      344.70955      5.5912075e-05  1.6384e+08   
     38600   0.19946133    -21.269461      0.29918886    -20.970272      6.7369695e-05  9.9763161e-05  7.2883973e-05  1378.8382      344.70955      344.70955      8.0005609e-05  1.6384e+08   
     38700   0.20008042    -21.269762      0.30011748    -20.969644      5.7522029e-05  6.4068777e-05  6.0137497e-05  1378.8382      344.70955      344.70955      6.0576101e-05  1.6384e+08   
     38800   0.20043473    -21.269063      0.30064893    -20.968414      5.1571508e-05  7.2636523e-05  6.0316074e-05  1378.8382      344.70955      344.70955      6.1508035e-05  1.6384e+08   
     38900   0.20064683    -21.268547      0.30096709    -20.96758       6.2604043e-05  5.8560913e-05  8.7184059e-05  1378.8382      344.70955      344.70955      6.9449672e-05  1.6384e+08   
     39000   0.19950351    -21.268081      0.29925212    -20.968829      9.4641241e-05  8.8844325e-05  5.2940427e-05  1378.8382      344.70955      344.70955      7.8808664e-05  1.6384e+08   
     39100   0.19921295    -21.268783      0.29881629    -20.969967      7.4329649e-05  6.9009168e-05  4.2127306e-05  1378.8382      344.70955      344.70955      6.1822041e-05  1.6384e+08   
     39200   0.19947341    -21.268393      0.29920697    -20.969186      2.2460217e-05  4.3300544e-05  5.8723566e-05  1378.8382      344.70955      344.70955      4.1494776e-05  1.6384e+08   
     39300   0.20068389    -21.268577      0.30102267    -20.967555      8.1138075e-05  5.7027577e-05  6.3327282e-05  1378.8382      344.70955      344.70955      6.7164311e-05  1.6384e+08   
     39400   0.20032385    -21.268193      0.30048262    -20.96771       5.9789322e-05  9.1297684e-05  9.5912565e-05  1378.8382      344.70955      344.70955      8.233319e-05   1.6384e+08   
     39500   0.19978537    -21.268673      0.29967491    -20.968998      8.0704849e-05  7.6878304e-05  7.9852014e-05  1378.8382      344.70955      344.70955      7.9145055e-05  1.6384e+08   
     39600   0.20000699    -21.268822      0.30000733    -20.968815      8.5431067e-05  0.00011900755  9.4399031e-05  1378.8382      344.70955      344.70955      9.961255e-05   1.6384e+08   
     39700   0.20031664    -21.268683      0.30047181    -20.968211      8.1856938e-05  7.873431e-05   9.723384e-05   1378.8382      344.70955      344.70955      8.5941696e-05  1.6384e+08   
     39800   0.20052672    -21.268578      0.30078692    -20.967791      5.6083762e-05  7.0841109e-05  5.7107739e-05  1378.8382      344.70955      344.70955      6.1344203e-05  1.6384e+08   
     39900   0.20007689    -21.268233      0.30011218    -20.968121      6.4007678e-05  7.1556052e-05  4.5591121e-05  1378.8382      344.70955      344.70955      6.038495e-05   1.6384e+08   
     40000   0.19914695    -21.268131      0.29871729    -20.969414      6.6639983e-05  3.9144732e-05  5.4581942e-05  1378.8382      344.70955      344.70955      5.3455552e-05  1.6384e+08   
     40100   0.19920402    -21.26783       0.29880289    -20.969027      6.1596713e-05  6.0482284e-05  5.9354151e-05  1378.8382      344.70955      344.70955      6.0477716e-05  1.6384e+08   
     40200   0.20053312    -21.267861      0.30079652    -20.967065      4.6806502e-05  6.7737799e-05  5.849412e-05   1378.8382      344.70955      344.70955      5.7679474e-05  1.6384e+08   
     40300   0.19995783    -21.26709       0.2999336     -20.967156      5.5473585e-05  4.9656841e-05  5.1724253e-05  1378.8382      344.70955      344.70955      5.2284893e-05  1.6384e+08   
     40400   0.19963381    -21.267141      0.29944757    -20.967693      6.0731964e-05  6.7993595e-05  6.6865635e-05  1378.8382      344.70955      344.70955      6.5197065e-05  1.6384e+08   
     40500   0.19967028    -21.267742      0.29950227    -20.96824       5.5240453e-05  5.2837758e-05  8.1748938e-05  1378.8382      344.70955      344.70955      6.3275716e-05  1.6384e+08   
     40600   0.19930913    -21.267536      0.29896056    -20.968576      5.7729535e-05  7.0150498e-05  7.8428293e-05  1378.8382      344.70955      344.70955      6.8769442e-05  1.6384e+08   
     40700   0.19965813    -21.26765       0.29948404    -20.968166      7.050305e-05   7.296912e-05   7.9287167e-05  1378.8382      344.70955      344.70955      7.4253112e-05  1.6384e+08   
     40800   0.20007251    -21.266883      0.30010561    -20.966777      6.8902901e-05  4.4548851e-05  5.6783465e-05  1378.8382      344.70955      344.70955      5.6745072e-05  1.6384e+08   
     40900   0.20076423    -21.267306      0.30114317    -20.966163      5.1180823e-05  3.5108286e-05  4.7439938e-05  1378.8382      344.70955      344.70955      4.4576349e-05  1.6384e+08   
     41000   0.20013809    -21.2675        0.30020399    -20.967296      7.4214107e-05  6.606648e-05   7.2233612e-05  1378.8382      344.70955      344.70955      7.0838066e-05  1.6384e+08   
     41100   0.19971946    -21.267999      0.29957604    -20.968423      6.5724512e-05  9.5805965e-05  4.4552935e-05  1378.8382      344.70955      344.70955      6.8694471e-05  1.6384e+08   
     41200   0.19959184    -21.26704       0.29938461    -20.967656      5.5344136e-05  4.0364396e-05  7.5229423e-05  1378.8382      344.70955      344.70955      5.6979318e-05  1.6384e+08   
     41300   0.2004581     -21.267434      0.300684      -20.96675       7.4650415e-05  5.5815807e-05  4.5604926e-05  1378.8382      344.70955      344.70955      5.8690382e-05  1.6384e+08   
     41400   0.20021377    -21.267038      0.30031751    -20.966721      3.8256424e-05  6.3161685e-05  4.3807614e-05  1378.8382      344.70955      344.70955      4.8408574e-05  1.6384e+08   
     41500   0.20025083    -21.267266      0.30037308    -20.966893      5.5238575e-05  5.9076011e-05  6.5845935e-05  1378.8382      344.70955      344.70955      6.0053507e-05  1.6384e+08   
     41600   0.19925127    -21.266511      0.29887376    -20.967637      5.1777732e-05  7.2531304e-05  7.7907939e-05  1378.8382      344.70955      344.70955      6.7405658e-05  1.6384e+08   
     41700   0.19860953    -21.267191      0.29791117    -20.96928       5.9354059e-05  4.2390092e-05  6.5042132e-05  1378.8382      344.70955      344.70955      5.5595428e-05  1.6384e+08   
     41800   0.1998627     -21.267531      0.29979089    -20.96774       7.7041861e-05  7.6139978e-05  6.1464936e-05  1378.8382      344.70955      344.70955      7.1548925e-05  1.6384e+08   
     41900   0.20010738    -21.266579      0.30015791    -20.966421      6.0471352e-05  5.7737168e-05  7.7715353e-05  1378.8382      344.70955      344.70955      6.5307958e-05  1.6384e+08   
     42000   0.20056625    -21.266972      0.30084622    -20.966126      3.884863e-05   5.9930339e-05  5.5227529e-05  1378.8382      344.70955      344.70955      5.1335499e-05  1.6384e+08   
     42100   0.20000794    -21.266498      0.30000876    -20.966489      6.9473786e-05  5.6420805e-05  7.6420763e-05  1378.8382      344.70955      344.70955      6.7438451e-05  1.6384e+08   
     42200   0.19919648    -21.266487      0.29879158    -20.967695      8.6544074e-05  6.2012047e-05  6.6076116e-05  1378.8382      344.70955      344.70955      7.1544079e-05  1.6384e+08   
     42300   0.19860985    -21.265826      0.29791165    -20.967914      8.2194113e-05  5.1945421e-05  4.215723e-05   1378.8382      344.70955      344.70955      5.8765588e-05  1.6384e+08   
     42400   0.20092481    -21.266883      0.30138405    -20.965499      5.565064e-05   6.4237567e-05  0.00011492133  1378.8382      344.70955      344.70955      7.8269846e-05  1.6384e+08   
     42500   0.20021392    -21.265763      0.30031773    -20.965445      0.0001118414   6.8184722e-05  8.4109846e-05  1378.8382      344.70955      344.70955      8.8045323e-05  1.6384e+08   
     42600   0.2001071     -21.266264      0.30015749    -20.966106      5.3845698e-05  3.89653e-05    6.0171814e-05  1378.8382      344.70955      344.70955      5.099427e-05   1.6384e+08   
     42700   0.19951465    -21.265907      0.29926884    -20.966638      7.7770872e-05  8.8815388e-05  8.7304152e-05  1378.8382      344.70955      344.70955      8.4630137e-05  1.6384e+08   
     42800   0.19963281    -21.265592      0.29944607    -20.966146      5.7239487e-05  4.2013158e-05  6.4905565e-05  1378.8382      344.70955      344.70955      5.4719403e-05  1.6384e+08   
     42900   0.20083377    -21.265406      0.30124749    -20.964158      5.8338888e-05  4.5405515e-05  8.4105408e-05  1378.8382      344.70955      344.70955      6.2616603e-05  1.6384e+08   
     43000   0.20075462    -21.265361      0.30112876    -20.964232      1.9117339e-05  5.7588222e-05  6.4206343e-05  1378.8382      344.70955      344.70955      4.6970635e-05  1.6384e+08   
     43100   0.20015536    -21.26588       0.30022989    -20.96565       7.2551859e-05  9.0979786e-05  3.4250026e-05  1378.8382      344.70955      344.70955      6.5927224e-05  1.6384e+08   
     43200   0.1997657     -21.265471      0.2996454     -20.965826      7.0774752e-05  8.8106953e-05  9.237619e-05   1378.8382      344.70955      344.70955      8.3752632e-05  1.6384e+08   
     43300   0.19987278    -21.265246      0.29980602    -20.96544       8.8298487e-05  9.2497835e-05  8.2048347e-05  1378.8382      344.70955      344.70955      8.761489e-05   1.6384e+08   
     43400   0.2000252     -21.264895      0.30003465    -20.96486       5.1835906e-05  6.5810579e-05  4.081401e-05   1378.8382      344.70955      344.70955      5.2820165e-05  1.6384e+08   
     43500   0.20057727    -21.264365      0.30086274    -20.963502      3.5240539e-05  5.1128663e-05  5.1669862e-05  1378.8382      344.70955      344.70955      4.6013021e-05  1.6384e+08   
     43600   0.20063722    -21.264642      0.30095267    -20.963689      6.4887269e-05  8.0407609e-05  6.1364413e-05  1378.8382      344.70955      344.70955      6.888643e-05   1.6384e+08   
     43700   0.19962664    -21.264927      0.29943681    -20.96549       7.835656e-05   7.6401791e-05  8.4149022e-05  1378.8382      344.70955      344.70955      7.9635791e-05  1.6384e+08   
     43800   0.19929699    -21.264619      0.29894234    -20.965677      2.9385096e-05  3.805973e-05   9.2570801e-05  1378.8382      344.70955      344.70955      5.3338542e-05  1.6384e+08   
     43900   0.20015976    -21.264812      0.30023649    -20.964576      5.9474587e-05  8.085316e-05   8.401511e-05   1378.8382      344.70955      344.70955      7.4780952e-05  1.6384e+08   
     44000   0.20110721    -21.265201      0.30165764    -20.963543      6.8747905e-05  7.7420178e-05  7.5982336e-05  1378.8382      344.70955      344.70955      7.405014e-05   1.6384e+08   
     44100   0.19967289    -21.264435      0.29950618    -20.964929      5.2073961e-05  4.5580938e-05  5.0636826e-05  1378.8382      344.70955      344.70955      4.9430575e-05  1.6384e+08   
     44200   0.19890957    -21.26423       0.29836122    -20.965869      6.3061926e-05  6.1419254e-05  5.6295224e-05  1378.8382      344.70955      344.70955      6.0258801e-05  1.6384e+08   
     44300   0.20000268    -21.264731      0.30000087    -20.96473       6.4093963e-05  7.3843272e-05  5.9721934e-05  1378.8382      344.70955      344.70955      6.5886389e-05  1.6384e+08   
     44400   0.20032884    -21.264165      0.3004901     -20.963674      8.8445996e-05  6.2101708e-05  5.00093e-05    1378.8382      344.70955      344.70955      6.6852335e-05  1.6384e+08   
     44500   0.20015622    -21.263959      0.30023118    -20.963727      5.7372044e-05  7.3491216e-05  6.5033538e-05  1378.8382      344.70955      344.70955      6.5298933e-05  1.6384e+08   
     44600   0.19922384    -21.264684      0.29883262    -20.965851      6.8074683e-05  7.3917107e-05  5.739979e-05   1378.8382      344.70955      344.70955      6.646386e-05   1.6384e+08   
     44700   0.19903328    -21.264254      0.29854679    -20.965707      6.0742297e-05  5.8329879e-05  7.791105e-05   1378.8382      344.70955      344.70955      6.5661075e-05  1.6384e+08   
     44800   0.19978125    -21.263865      0.29966873    -20.964196      7.5186164e-05  6.3793363e-05  6.9313959e-05  1378.8382      344.70955      344.70955      6.9431162e-05  1.6384e+08   
     44900   0.20056786    -21.264091      0.30084863    -20.963242      3.1381865e-05  2.2195734e-05  5.6772165e-05  1378.8382      344.70955      344.70955      3.6783255e-05  1.6384e+08   
     45000   0.20014956    -21.263702      0.30022119    -20.963481      3.0373762e-05  3.3930339e-05  5.1332301e-05  1378.8382      344.70955      344.70955      3.8545467e-05  1.6384e+08   
     45100   0.19951228    -21.264529      0.29926528    -20.965263      4.8337336e-05  5.674097e-05   5.2349456e-05  1378.8382      344.70955      344.70955      5.2475921e-05  1.6384e+08   
     45200   0.19913344    -21.263681      0.29869702    -20.964984      5.4484205e-05  4.8234497e-05  6.9282848e-05  1378.8382      344.70955      344.70955      5.733385e-05   1.6384e+08   
     45300   0.20038954    -21.264399      0.30058115    -20.963818      3.4725335e-05  4.8142842e-05  3.3897878e-05  1378.8382      344.70955      344.70955      3.8922018e-05  1.6384e+08   
     45400   0.20061141    -21.263957      0.30091395    -20.963043      5.8632676e-05  5.1527477e-05  7.1231e-05     1378.8382      344.70955      344.70955      6.0463717e-05  1.6384e+08   
     45500   0.20053036    -21.264256      0.30079238    -20.963464      4.8318154e-05  7.7612684e-05  6.5141382e-05  1378.8382      344.70955      344.70955      6.369074e-05   1.6384e+08   
     45600   0.19902631    -21.263467      0.29853633    -20.964931      3.9039378e-05  5.6414767e-05  8.9259528e-05  1378.8382      344.70955      344.70955      6.1571224e-05  1.6384e+08   
     45700   0.19950671    -21.26353       0.29925693    -20.964273      9.0766002e-05  7.4782425e-05  7.0760548e-05  1378.8382      344.70955      344.70955      7.8769658e-05  1.6384e+08   
     45800   0.20082813    -21.263208      0.30123902    -20.961969      8.2265078e-05  0.000101403    5.8063711e-05  1378.8382      344.70955      344.70955      8.0577263e-05  1.6384e+08   
     45900   0.20038197    -21.262553      0.30056979    -20.961983      7.5998959e-05  6.2354055e-05  6.2691795e-05  1378.8382      344.70955      344.70955      6.7014936e-05  1.6384e+08   
     46000   0.20006414    -21.262927      0.30009306    -20.962834      6.4194278e-05  8.9465916e-05  9.8121966e-05  1378.8382      344.70955      344.70955      8.3927387e-05  1.6384e+08   
     46100   0.19982957    -21.263468      0.29974121    -20.963727      6.8209209e-05  5.3834736e-05  4.4372987e-05  1378.8382      344.70955      344.70955      5.5472311e-05  1.6384e+08   
     46200   0.19980505    -21.263282      0.29970443    -20.963577      5.4626686e-05  6.0997107e-05  6.6983156e-05  1378.8382      344.70955      344.70955      6.0868983e-05  1.6384e+08   
     46300   0.20041049    -21.262517      0.30061257    -20.961904      8.345585e-05   9.6638185e-05  9.8376916e-05  1378.8382      344.70955      344.70955      9.282365e-05   1.6384e+08   
     46400   0.20132541    -21.262558      0.30198494    -20.960573      2.6533199e-05  2.7763741e-05  4.498252e-05   1378.8382      344.70955      344.70955      3.3093154e-05  1.6384e+08   
     46500   0.20054897    -21.263077      0.3008203     -20.962257      6.0478475e-05  4.3257001e-05  1.864008e-05   1378.8382      344.70955      344.70955      4.0791852e-05  1.6384e+08   
     46600   0.19970818    -21.262312      0.29955913    -20.962753      5.041145e-05   3.3049831e-05  7.2523948e-05  1378.8382      344.70955      344.70955      5.1995076e-05  1.6384e+08   
     46700   0.20006933    -21.262729      0.30010084    -20.962629      6.1784887e-05  8.5531883e-05  5.7111676e-05  1378.8382      344.70955      344.70955      6.8142815e-05  1.6384e+08   
     46800   0.19957143    -21.262375      0.29935399    -20.963021      7.2681926e-05  5.7350208e-05  8.8563116e-05  1378.8382      344.70955      344.70955      7.2865083e-05  1.6384e+08   
     46900   0.20014484    -21.263153      0.30021411    -20.962939      5.3269806e-05  7.3128719e-05  7.2171261e-05  1378.8382      344.70955      344.70955      6.6189929e-05  1.6384e+08   
     47000   0.20038207    -21.262075      0.30056995    -20.961506      9.3775801e-05  7.3156107e-05  4.5918319e-05  1378.8382      344.70955      344.70955      7.0950076e-05  1.6384e+08   
     47100   0.20028727    -21.261364      0.30042775    -20.960936      3.9812597e-05  6.8617351e-05  5.9264854e-05  1378.8382      344.70955      344.70955      5.5898267e-05  1.6384e+08   
     47200   0.19977141    -21.26226       0.29965397    -20.962606      3.4986527e-05  3.0087154e-05  3.6063048e-05  1378.8382      344.70955      344.70955      3.3712243e-05  1.6384e+08   
     47300   0.19960452    -21.262466      0.29940364    -20.963063      5.3046065e-05  7.2395473e-05  7.539284e-05   1378.8382      344.70955      344.70955      6.6944793e-05  1.6384e+08   
     47400   0.20020158    -21.262413      0.30029922    -20.962114      6.7800685e-05  6.1274353e-05  4.835455e-05   1378.8382      344.70955      344.70955      5.9143196e-05  1.6384e+08   
     47500   0.20092641    -21.26263       0.30138645    -20.961244      7.7083987e-05  6.189106e-05   7.3072391e-05  1378.8382      344.70955      344.70955      7.0682479e-05  1.6384e+08   
     47600   0.19998414    -21.26157       0.29997306    -20.961597      5.4867998e-05  4.8015862e-05  4.6974994e-05  1378.8382      344.70955      344.70955      4.9952951e-05  1.6384e+08   
     47700   0.19870625    -21.261547      0.29805625    -20.96349       8.1007277e-05  4.5397307e-05  7.980922e-05   1378.8382      344.70955      344.70955      6.8737935e-05  1.6384e+08   
     47800   0.19908973    -21.261382      0.29863145    -20.962751      6.4708754e-05  4.7923076e-05  8.3721317e-05  1378.8382      344.70955      344.70955      6.5451049e-05  1.6384e+08   
     47900   0.19996937    -21.260935      0.2999509     -20.960984      4.0565416e-05  2.2930757e-05  5.076515e-05   1378.8382      344.70955      344.70955      3.8087108e-05  1.6384e+08   
     48000   0.20056793    -21.261597      0.30084874    -20.960748      3.0970036e-05  5.4886702e-05  3.9692577e-05  1378.8382      344.70955      344.70955      4.1849772e-05  1.6384e+08   
     48100   0.20002829    -21.261511      0.30003928    -20.961471      5.4305211e-05  2.3927825e-05  6.0261233e-05  1378.8382      344.70955      344.70955      4.6164756e-05  1.6384e+08   
     48200   0.19984016    -21.261709      0.29975709    -20.961952      8.3480001e-05  8.1619554e-05  7.0101937e-05  1378.8382      344.70955      344.70955      7.8400497e-05  1.6384e+08   
     48300   0.20036443    -21.261728      0.30054349    -20.961185      4.060476e-05   6.2117712e-05  7.6444471e-05  1378.8382      344.70955      344.70955      5.9722314e-05  1.6384e+08   
     48400   0.20182037    -21.26182       0.30272738    -20.959093      8.8065622e-05  9.9316348e-05  8.5186296e-05  1378.8382      344.70955      344.70955      9.0856089e-05  1.6384e+08   
     48500   0.20085983    -21.261567      0.30128658    -20.960281      3.7973664e-05  9.645271e-05   6.1304843e-05  1378.8382      344.70955      344.70955      6.5243739e-05  1.6384e+08   
     48600   0.19957313    -21.260585      0.29935655    -20.961229      7.4005855e-05  5.5968272e-05  7.9921705e-05  1378.8382      344.70955      344.70955      6.9965277e-05  1.6384e+08   
     48700   0.20002233    -21.261487      0.30003034    -20.961457      4.9730887e-05  8.546175e-05   5.360541e-05   1378.8382      344.70955      344.70955      6.2932682e-05  1.6384e+08   
     48800   0.20004399    -21.261161      0.30006283    -20.961098      7.3932747e-05  8.5222256e-05  4.9392876e-05  1378.8382      344.70955      344.70955      6.9515959e-05  1.6384e+08   
     48900   0.20047014    -21.260471      0.30070204    -20.959769      3.6042333e-05  9.3356782e-05  7.780822e-05   1378.8382      344.70955      344.70955      6.9069112e-05  1.6384e+08   
     49000   0.20103791    -21.260354      0.3015537     -20.9588        4.4195692e-05  4.1431675e-05  6.5253127e-05  1378.8382      344.70955      344.70955      5.0293498e-05  1.6384e+08   
     49100   0.20020388    -21.260659      0.30030267    -20.960356      2.526929e-05   3.1595443e-05  4.2321277e-05  1378.8382      344.70955      344.70955      3.3062003e-05  1.6384e+08   
     49200   0.19961022    -21.260785      0.29941219    -20.961373      5.9640069e-05  3.6621573e-05  6.484771e-05   1378.8382      344.70955      344.70955      5.3703117e-05  1.6384e+08   
     49300   0.19977536    -21.260695      0.2996599     -20.961035      5.0297011e-05  5.2768572e-05  4.5878659e-05  1378.8382      344.70955      344.70955      4.9648081e-05  1.6384e+08   
     49400   0.20024411    -21.260183      0.30036301    -20.95982       0.00010628788  3.5782109e-05  7.1334243e-05  1378.8382      344.70955      344.70955      7.1134744e-05  1.6384e+08   
     49500   0.20063124    -21.259731      0.30094369    -20.958788      9.2441575e-05  8.6593597e-05  7.691063e-05   1378.8382      344.70955      344.70955      8.5315267e-05  1.6384e+08   
     49600   0.20025274    -21.260693      0.30037596    -20.960317      5.8418444e-05  4.8477474e-05  5.5264062e-05  1378.8382      344.70955      344.70955      5.4053327e-05  1.6384e+08   
     49700   0.19964053    -21.260797      0.29945765    -20.961339      7.591894e-05   7.6284037e-05  7.278612e-05   1378.8382      344.70955      344.70955      7.4996366e-05  1.6384e+08   
     49800   0.20022034    -21.260709      0.30032736    -20.960382      3.4161643e-05  4.2971112e-05  4.3629129e-05  1378.8382      344.70955      344.70955      4.0253962e-05  1.6384e+08   
     49900   0.20083451    -21.260198      0.30124859    -20.958949      7.3619246e-05  3.4507931e-05  4.5362812e-05  1378.8382      344.70955      344.70955      5.1163329e-05  1.6384e+08   
     50000   0.20055355    -21.259996      0.30082716    -20.959168      2.4838228e-05  5.7021648e-05  8.5758802e-05  1378.8382      344.70955      344.70955      5.5872893e-05  1.6384e+08   
     50100   0.20027407    -21.260746      0.30040795    -20.960338      3.4531426e-05  4.2356295e-05  6.5694125e-05  1378.8382      344.70955      344.70955      4.7527282e-05  1.6384e+08   
     50200   0.19996554    -21.260257      0.29994515    -20.960311      5.2631462e-05  7.199172e-05   3.4144497e-05  1378.8382      344.70955      344.70955      5.292256e-05   1.6384e+08   
     50300   0.20000851    -21.259859      0.30000962    -20.959849      2.9181889e-05  6.9443652e-05  4.6990913e-05  1378.8382      344.70955      344.70955      4.8538818e-05  1.6384e+08   
     50400   0.2008026     -21.260421      0.30120073    -20.95922       6.2252477e-05  5.959519e-05   6.0980808e-05  1378.8382      344.70955      344.70955      6.0942825e-05  1.6384e+08   
     50500   0.19983222    -21.259253      0.29974518    -20.959508      4.8607908e-05  9.1797961e-05  5.0507946e-05  1378.8382      344.70955      344.70955      6.3637939e-05  1.6384e+08   
     50600   0.19976323    -21.260299      0.2996417     -20.960658      3.8755472e-05  6.4173172e-05  7.7587368e-05  1378.8382      344.70955      344.70955      6.0172004e-05  1.6384e+08   
     50700   0.19914907    -21.259573      0.29872047    -20.960852      4.4979345e-05  6.0399297e-06  4.5721214e-05  1378.8382      344.70955      344.70955      3.224683e-05   1.6384e+08   
     50800   0.19997675    -21.258718      0.29996198    -20.958756      4.1139896e-05  9.2899622e-05  6.6389762e-05  1378.8382      344.70955      344.70955      6.680976e-05   1.6384e+08   
     50900   0.20040769    -21.258496      0.30060838    -20.957887      5.9867119e-05  4.9788912e-05  8.4513684e-05  1378.8382      344.70955      344.70955      6.4723238e-05  1.6384e+08   
     51000   0.2005193     -21.259387      0.30077579    -20.958611      8.0671913e-05  4.4429794e-05  2.855592e-05   1378.8382      344.70955      344.70955      5.1219209e-05  1.6384e+08   
     51100   0.20000964    -21.259456      0.3000113     -20.959445      6.8370706e-05  5.7918058e-05  6.0465554e-05  1378.8382      344.70955      344.70955      6.2251439e-05  1.6384e+08   
     51200   0.19961007    -21.258788      0.29941196    -20.959376      6.1859334e-05  4.4126707e-05  6.530328e-05   1378.8382      344.70955      344.70955      5.709644e-05   1.6384e+08   
     51300   0.20047546    -21.2593        0.30071003    -20.95859       5.8702419e-05  8.5849022e-05  7.4444508e-05  1378.8382      344.70955      344.70955      7.299865e-05   1.6384e+08   
     51400   0.19994741    -21.257825      0.29991797    -20.957907      4.1538241e-05  7.8746518e-05  8.3011498e-05  1378.8382      344.70955      344.70955      6.7765419e-05  1.6384e+08   
     51500   0.20032638    -21.258911      0.30048642    -20.958424      7.8261467e-05  7.8268633e-05  4.0222394e-05  1378.8382      344.70955      344.70955      6.5584165e-05  1.6384e+08   
     51600   0.19958392    -21.25901       0.29937273    -20.959638      7.0084725e-05  6.8436115e-05  8.7996631e-05  1378.8382      344.70955      344.70955      7.5505824e-05  1.6384e+08   
     51700   0.19996954    -21.259264      0.29995116    -20.959313      9.0351698e-05  7.9722286e-05  8.2983911e-05  1378.8382      344.70955      344.70955      8.4352632e-05  1.6384e+08   
     51800   0.2005033     -21.258649      0.3007518     -20.957897      3.0945006e-05  8.7627506e-05  4.5646634e-05  1378.8382      344.70955      344.70955      5.4739715e-05  1.6384e+08   
     51900   0.20088553    -21.258115      0.30132513    -20.95679       7.3148476e-05  8.4576617e-05  7.2496697e-05  1378.8382      344.70955      344.70955      7.6740597e-05  1.6384e+08   
     52000   0.20015111    -21.258758      0.30022351    -20.958535      4.3570798e-05  5.7207605e-05  7.0987724e-05  1378.8382      344.70955      344.70955      5.7255376e-05  1.6384e+08   
     52100   0.19940046    -21.258523      0.29909755    -20.959426      3.5672561e-05  7.0933741e-05  8.465646e-05   1378.8382      344.70955      344.70955      6.3754254e-05  1.6384e+08   
     52200   0.20001836    -21.258435      0.30002439    -20.958411      7.1350769e-05  3.3731517e-05  6.2823304e-05  1378.8382      344.70955      344.70955      5.596853e-05   1.6384e+08   
     52300   0.20095946    -21.258414      0.30143602    -20.956978      2.9079689e-05  5.3048204e-05  5.4528846e-05  1378.8382      344.70955      344.70955      4.5552246e-05  1.6384e+08   
     52400   0.20046957    -21.25787       0.3007012     -20.957168      9.1380311e-05  6.5088175e-05  9.2884035e-05  1378.8382      344.70955      344.70955      8.3117507e-05  1.6384e+08   
     52500   0.19967642    -21.258207      0.29951148    -20.958696      4.2722571e-05  4.785986e-05   6.9721164e-05  1378.8382      344.70955      344.70955      5.3434532e-05  1.6384e+08   
     52600   0.19956935    -21.257809      0.29935088    -20.958459      4.8321515e-05  3.8665593e-05  7.8816592e-05  1378.8382      344.70955      344.70955      5.52679e-05    1.6384e+08   
     52700   0.19984767    -21.257416      0.29976835    -20.957648      6.0097117e-05  6.2305543e-05  4.7958937e-05  1378.8382      344.70955      344.70955      5.6787199e-05  1.6384e+08   
     52800   0.20047101    -21.257726      0.30070335    -20.957023      5.383421e-05   1.3048662e-05  6.095606e-05   1378.8382      344.70955      344.70955      4.2612977e-05  1.6384e+08   
     52900   0.19985514    -21.257653      0.29977956    -20.957873      5.6160114e-05  3.06625e-05    1.7988404e-05  1378.8382      344.70955      344.70955      3.4937006e-05  1.6384e+08   
     53000   0.19863524    -21.256978      0.29794973    -20.959028      4.052676e-05   3.7489306e-05  6.0242453e-05  1378.8382      344.70955      344.70955      4.6086173e-05  1.6384e+08   
     53100   0.19952103    -21.257219      0.2992784     -20.957941      5.7352996e-05  3.8959027e-05  6.5473931e-05  1378.8382      344.70955      344.70955      5.3928651e-05  1.6384e+08   
     53200   0.19978247    -21.256373      0.29967056    -20.956702      6.4448152e-05  6.4632751e-05  8.4854502e-05  1378.8382      344.70955      344.70955      7.1311802e-05  1.6384e+08   
     53300   0.20026572    -21.257237      0.30039543    -20.956842      6.2953144e-05  5.0432954e-05  6.0727441e-05  1378.8382      344.70955      344.70955      5.8037846e-05  1.6384e+08   
     53400   0.20032104    -21.257489      0.30047841    -20.957011      5.3504427e-05  4.7718286e-05  4.3128186e-05  1378.8382      344.70955      344.70955      4.8116966e-05  1.6384e+08   
     53500   0.19973034    -21.256984      0.29959236    -20.957392      5.0479139e-05  6.2926514e-05  1.6789154e-05  1378.8382      344.70955      344.70955      4.3398269e-05  1.6384e+08   
     53600   0.19949457    -21.257278      0.29923872    -20.958039      7.3946065e-05  7.5001719e-05  3.2230299e-05  1378.8382      344.70955      344.70955      6.0392694e-05  1.6384e+08   
     53700   0.19936774    -21.25719       0.29904847    -20.958141      9.417818e-05   9.3939228e-05  9.7931786e-05  1378.8382      344.70955      344.70955      9.5349731e-05  1.6384e+08   
     53800   0.20016673    -21.2569        0.30024693    -20.956653      9.5412944e-05  6.5476233e-05  0.00010981078  1378.8382      344.70955      344.70955      9.0233317e-05  1.6384e+08   
     53900   0.20065699    -21.256423      0.30098232    -20.955441      6.2852377e-05  7.1777679e-05  7.4994719e-05  1378.8382      344.70955      344.70955      6.9874925e-05  1.6384e+08   
     54000   0.20037045    -21.257066      0.30055252    -20.956513      5.1338071e-05  5.4500346e-05  3.2049023e-05  1378.8382      344.70955      344.70955      4.596248e-05   1.6384e+08   
     54100   0.19951444    -21.256759      0.29926852    -20.95749       1.4121566e-05  3.9457399e-05  2.2291827e-05  1378.8382      344.70955      344.70955      2.5290264e-05  1.6384e+08   
     54200   0.20015052    -21.257227      0.30022263    -20.957004      3.7766979e-05  4.2598082e-05  4.6294199e-05  1378.8382      344.70955      344.70955      4.2219753e-05  1.6384e+08   
     54300   0.20008688    -21.256678      0.30012717    -20.956551      6.1380976e-05  4.8604133e-05  4.0950835e-05  1378.8382      344.70955      344.70955      5.0311981e-05  1.6384e+08   
     54400   0.20039073    -21.256901      0.30058294    -20.956319      6.7445962e-05  6.7120542e-05  4.4199335e-05  1378.8382      344.70955      344.70955      5.9588613e-05  1.6384e+08   
     54500   0.20031219    -21.257475      0.30046513    -20.95701       4.803141e-05   4.3654604e-05  7.4940515e-05  1378.8382      344.70955      344.70955      5.5542176e-05  1.6384e+08   
     54600   0.19969339    -21.257362      0.29953694    -20.957825      2.4671894e-05  1.6223971e-05  2.8462383e-05  1378.8382      344.70955      344.70955      2.3119416e-05  1.6384e+08   
     54700   0.19968311    -21.256676      0.29952152    -20.957155      5.1708363e-05  4.0703861e-05  5.7524331e-05  1378.8382      344.70955      344.70955      4.9978852e-05  1.6384e+08   
     54800   0.20062504    -21.256351      0.3009344     -20.955417      5.6773632e-05  5.3705027e-05  3.5517025e-05  1378.8382      344.70955      344.70955      4.8665228e-05  1.6384e+08   
     54900   0.20053698    -21.256433      0.30080231    -20.955631      6.1984694e-05  6.7755255e-05  5.1703099e-05  1378.8382      344.70955      344.70955      6.0481016e-05  1.6384e+08   
     55000   0.19987901    -21.256993      0.29981536    -20.957177      6.2875086e-05  5.648159e-05   8.9376602e-05  1378.8382      344.70955      344.70955      6.9577759e-05  1.6384e+08   
     55100   0.19951084    -21.256641      0.29926312    -20.957377      6.0121783e-05  5.4482924e-05  6.2542545e-05  1378.8382      344.70955      344.70955      5.9049084e-05  1.6384e+08   
     55200   0.20013169    -21.256664      0.30019439    -20.95647       5.6978466e-05  4.7480598e-05  8.1315965e-05  1378.8382      344.70955      344.70955      6.192501e-05   1.6384e+08   
     55300   0.19982865    -21.25521       0.29973983    -20.95547       2.6525919e-05  5.9920403e-05  5.2889987e-05  1378.8382      344.70955      344.70955      4.6445436e-05  1.6384e+08   
     55400   0.20070858    -21.255879      0.30105971    -20.954819      7.1641643e-05  7.5230042e-05  5.2623509e-05  1378.8382      344.70955      344.70955      6.6498398e-05  1.6384e+08   
     55500   0.19997117    -21.256476      0.2999536     -20.956522      6.6224023e-05  6.9651346e-05  9.1931774e-05  1378.8382      344.70955      344.70955      7.5935714e-05  1.6384e+08   
     55600   0.19982545    -21.256631      0.29973502    -20.956896      6.8770924e-05  9.4216626e-05  9.9429851e-05  1378.8382      344.70955      344.70955      8.7472467e-05  1.6384e+08   
     55700   0.19987758    -21.255797      0.29981322    -20.955984      4.1296583e-05  6.6951175e-05  5.8029278e-05  1378.8382      344.70955      344.70955      5.5425679e-05  1.6384e+08   
     55800   0.20050556    -21.255698      0.30075518    -20.954943      9.1040697e-05  8.4389026e-05  4.3546635e-05  1378.8382      344.70955      344.70955      7.2992119e-05  1.6384e+08   
     55900   0.20054372    -21.255912      0.30081241    -20.955099      5.6184738e-05  8.3390012e-05  6.4939455e-05  1378.8382      344.70955      344.70955      6.8171402e-05  1.6384e+08   
     56000   0.19915374    -21.256029      0.29872748    -20.957301      4.6604237e-05  8.6865891e-05  6.8393371e-05  1378.8382      344.70955      344.70955      6.7287833e-05  1.6384e+08   
     56100   0.19953816    -21.255982      0.2993041     -20.956678      4.8150138e-05  2.8897372e-05  5.8874475e-05  1378.8382      344.70955      344.70955      4.5307328e-05  1.6384e+08   
     56200   0.19999086    -21.254942      0.29998313    -20.954959      5.6657477e-05  4.5635088e-05  9.5020259e-05  1378.8382      344.70955      344.70955      6.5770941e-05  1.6384e+08   
     56300   0.1999654     -21.254525      0.29994495    -20.954581      4.9556997e-05  3.3137267e-05  8.1393617e-05  1378.8382      344.70955      344.70955      5.469596e-05   1.6384e+08   
     56400   0.20020759    -21.255476      0.30030822    -20.955168      3.9390232e-05  2.9374942e-05  5.0659356e-05  1378.8382      344.70955      344.70955      3.9808177e-05  1.6384e+08   
     56500   0.19897372    -21.254737      0.29845745    -20.95628       5.5008719e-05  4.8263666e-05  8.3885102e-05  1378.8382      344.70955      344.70955      6.2385829e-05  1.6384e+08   
     56600   0.19909637    -21.254917      0.29864141    -20.956275      7.6340413e-05  7.6170728e-05  5.5160391e-05  1378.8382      344.70955      344.70955      6.9223844e-05  1.6384e+08   
     56700   0.20024958    -21.254575      0.30037121    -20.954204      6.9575013e-05  6.6036549e-05  9.5706454e-05  1378.8382      344.70955      344.70955      7.7106005e-05  1.6384e+08   
     56800   0.20101361    -21.255015      0.30151724    -20.953498      0.00011023757  8.2943448e-05  8.0462588e-05  1378.8382      344.70955      344.70955      9.1214537e-05  1.6384e+08   
     56900   0.20020992    -21.255106      0.30031173    -20.954795      5.5772769e-05  3.9800958e-05  4.2655427e-05  1378.8382      344.70955      344.70955      4.6076384e-05  1.6384e+08   
     57000   0.19954506    -21.254846      0.29931444    -20.955531      7.1022522e-05  4.8784745e-05  6.2971883e-05  1378.8382      344.70955      344.70955      6.0926383e-05  1.6384e+08   
     57100   0.20016142    -21.255371      0.30023897    -20.955132      8.4859857e-05  5.3779461e-05  5.8356638e-05  1378.8382      344.70955      344.70955      6.5665319e-05  1.6384e+08   
     57200   0.2001624     -21.253975      0.30024045    -20.953735      4.7457648e-05  3.9416773e-05  6.7656193e-05  1378.8382      344.70955      344.70955      5.1510205e-05  1.6384e+08   
     57300   0.2019267     -21.254522      0.30288687    -20.951635      5.1726389e-05  5.6439694e-05  5.4314405e-05  1378.8382      344.70955      344.70955      5.4160163e-05  1.6384e+08   
     57400   0.20053737    -21.254111      0.3008029     -20.953308      5.3324809e-05  6.2993735e-05  8.3016039e-05  1378.8382      344.70955      344.70955      6.6444861e-05  1.6384e+08   
     57500   0.2001924     -21.254583      0.30028544    -20.954297      7.4561743e-05  7.9972422e-05  5.7966846e-05  1378.8382      344.70955      344.70955      7.083367e-05   1.6384e+08   
     57600   0.19981999    -21.254608      0.29972683    -20.954881      8.1480887e-05  5.7759334e-05  7.3040364e-05  1378.8382      344.70955      344.70955      7.0760195e-05  1.6384e+08   
     57700   0.20015499    -21.254889      0.30022933    -20.95466       7.460197e-05   9.5290615e-05  8.5609454e-05  1378.8382      344.70955      344.70955      8.5167346e-05  1.6384e+08   
     57800   0.20007715    -21.254193      0.30011257    -20.954081      5.9046805e-05  6.7910298e-05  6.9392504e-05  1378.8382      344.70955      344.70955      6.5449869e-05  1.6384e+08   
     57900   0.19997519    -21.253723      0.29995964    -20.953763      7.1710236e-05  4.6607538e-05  6.1364713e-05  1378.8382      344.70955      344.70955      5.9894163e-05  1.6384e+08   
     58000   0.20032932    -21.254039      0.30049082    -20.953548      4.9651239e-05  3.5967995e-05  4.8311332e-05  1378.8382      344.70955      344.70955      4.4643522e-05  1.6384e+08   
     58100   0.19978013    -21.254135      0.29966705    -20.954468      3.9210927e-05  4.3399895e-05  3.1950227e-05  1378.8382      344.70955      344.70955      3.8187016e-05  1.6384e+08   
     58200   0.199835      -21.255067      0.29974935    -20.955318      3.9022982e-05  2.5109362e-05  2.9402695e-05  1378.8382      344.70955      344.70955      3.1178346e-05  1.6384e+08   
     58300   0.20005684    -21.254325      0.3000821     -20.954243      2.4892771e-05  1.4409927e-05  1.7100954e-05  1378.8382      344.70955      344.70955      1.8801217e-05  1.6384e+08   
     58400   0.20085015    -21.253532      0.30127206    -20.95226       3.9281401e-05  5.5097703e-05  4.8695354e-05  1378.8382      344.70955      344.70955      4.7691486e-05  1.6384e+08   
     58500   0.20067785    -21.25357       0.30101362    -20.952556      4.6947117e-05  5.1136904e-05  3.5250346e-05  1378.8382      344.70955      344.70955      4.4444789e-05  1.6384e+08   
     58600   0.20055421    -21.25422       0.30082816    -20.953392      2.7552868e-05  4.1531746e-05  8.0762038e-05  1378.8382      344.70955      344.70955      4.9948884e-05  1.6384e+08   
     58700   0.19982263    -21.253775      0.29973079    -20.954045      5.1842577e-05  9.3883913e-05  4.2494169e-05  1378.8382      344.70955      344.70955      6.274022e-05   1.6384e+08   
     58800   0.19960785    -21.25357       0.29940862    -20.954161      6.7672294e-05  3.5711505e-05  6.3030992e-05  1378.8382      344.70955      344.70955      5.5471597e-05  1.6384e+08   
     58900   0.20057894    -21.253344      0.30086524    -20.952479      7.5926218e-05  8.5699856e-05  7.5327306e-05  1378.8382      344.70955      344.70955      7.898446e-05   1.6384e+08   
     59000   0.20141102    -21.253678      0.30211336    -20.951564      8.0237807e-05  8.1098696e-05  8.6323083e-05  1378.8382      344.70955      344.70955      8.2553195e-05  1.6384e+08   
     59100   0.20004764    -21.253441      0.3000683     -20.953373      7.6465483e-05  6.3306411e-05  6.9294854e-05  1378.8382      344.70955      344.70955      6.9688916e-05  1.6384e+08   
     59200   0.20002336    -21.253527      0.30003189    -20.953495      9.0197283e-05  8.076195e-05   6.183778e-05   1378.8382      344.70955      344.70955      7.7599004e-05  1.6384e+08   
     59300   0.19977347    -21.25303       0.29965706    -20.953372      6.9768264e-05  6.565816e-05   5.6635073e-05  1378.8382      344.70955      344.70955      6.4020499e-05  1.6384e+08   
     59400   0.19946602    -21.252314      0.29919588    -20.953118      3.9496954e-05  5.3895693e-05  7.5923374e-05  1378.8382      344.70955      344.70955      5.6438674e-05  1.6384e+08   
     59500   0.20023441    -21.253071      0.30034846    -20.952723      5.6791117e-05  6.471118e-05   4.35436e-05    1378.8382      344.70955      344.70955      5.5015299e-05  1.6384e+08   
     59600   0.20010556    -21.252905      0.30015519    -20.95275       4.6198137e-05  5.7882529e-05  8.4205484e-05  1378.8382      344.70955      344.70955      6.276205e-05   1.6384e+08   
     59700   0.19971812    -21.253284      0.29957404    -20.95371       9.7645747e-05  8.3163479e-05  7.6502682e-05  1378.8382      344.70955      344.70955      8.5770636e-05  1.6384e+08   
     59800   0.19934971    -21.252932      0.29902142    -20.953911      7.8448143e-05  8.7906352e-05  8.3069904e-05  1378.8382      344.70955      344.70955      8.3141466e-05  1.6384e+08   
     59900   0.20030424    -21.253031      0.3004532     -20.952578      4.6365589e-05  7.5032358e-05  9.7304e-05     1378.8382      344.70955      344.70955      7.2900649e-05  1.6384e+08   
     60000   0.20122078    -21.2526        0.30182799    -20.950772      4.9502701e-05  6.8449458e-05  8.0522523e-05  1378.8382      344.70955      344.70955      6.6158227e-05  1.6384e+08   
     60100   0.20049242    -21.25234       0.30073548    -20.951604      6.9231573e-05  5.9680047e-05  6.9635393e-05  1378.8382      344.70955      344.70955      6.6182338e-05  1.6384e+08   
     60200   0.20026645    -21.253068      0.30039651    -20.952672      6.2170142e-05  5.5853772e-05  3.5252759e-05  1378.8382      344.70955      344.70955      5.1092224e-05  1.6384e+08   
     60300   0.20009579    -21.252771      0.30014053    -20.95263       6.7884506e-05  6.4217647e-05  8.5736403e-05  1378.8382      344.70955      344.70955      7.2612852e-05  1.6384e+08   
     60400   0.20060329    -21.253315      0.30090177    -20.952413      6.3328636e-05  5.8968043e-05  3.1014535e-05  1378.8382      344.70955      344.70955      5.1103738e-05  1.6384e+08   
     60500   0.20025937    -21.252602      0.30038591    -20.952216      7.7339698e-05  6.3008949e-05  7.0346008e-05  1378.8382      344.70955      344.70955      7.0231552e-05  1.6384e+08   
     60600   0.20005347    -21.25238       0.30007705    -20.952303      6.5953657e-05  5.0555277e-05  0.00010415605  1378.8382      344.70955      344.70955      7.3554994e-05  1.6384e+08   
     60700   0.19975081    -21.252725      0.29962307    -20.953102      4.7608605e-05  8.8408842e-05  2.1609595e-05  1378.8382      344.70955      344.70955      5.2542347e-05  1.6384e+08   
     60800   0.19916675    -21.251948      0.29874699    -20.953201      5.191865e-05   3.5065682e-06  4.4022857e-05  1378.8382      344.70955      344.70955      3.3149358e-05  1.6384e+08   
     60900   0.19989681    -21.251148      0.29984207    -20.951306      4.1341661e-05  6.446223e-05   2.8826189e-05  1378.8382      344.70955      344.70955      4.4876693e-05  1.6384e+08   
     61000   0.20044332    -21.251154      0.30066182    -20.950492      5.8559633e-05  4.9470779e-05  5.6980225e-05  1378.8382      344.70955      344.70955      5.5003545e-05  1.6384e+08   
     61100   0.20031194    -21.25192       0.30046475    -20.951456      6.3235286e-05  5.2451656e-05  7.0362479e-05  1378.8382      344.70955      344.70955      6.2016474e-05  1.6384e+08   
     61200   0.19974873    -21.251494      0.29961994    -20.951874      3.304586e-05   4.7315127e-05  5.8300034e-05  1378.8382      344.70955      344.70955      4.622034e-05   1.6384e+08   
     61300   0.19992891    -21.251609      0.29989022    -20.951719      5.8002225e-05  4.2779798e-05  5.5864633e-05  1378.8382      344.70955      344.70955      5.2215552e-05  1.6384e+08   
     61400   0.20002527    -21.251479      0.30003475    -20.951445      5.0990199e-05  6.0745471e-05  2.8511782e-05  1378.8382      344.70955      344.70955      4.6749151e-05  1.6384e+08   
     61500   0.20037364    -21.251605      0.3005573     -20.951047      3.2858148e-05  5.7411177e-05  5.0054194e-05  1378.8382      344.70955      344.70955      4.6774506e-05  1.6384e+08   
     61600   0.20038302    -21.251743      0.30057137    -20.951172      3.0388918e-05  3.2514526e-05  2.9024233e-05  1378.8382      344.70955      344.70955      3.0642559e-05  1.6384e+08   
     61700   0.19947663    -21.251202      0.2992118     -20.951991      6.7901098e-05  6.5744897e-05  4.6473805e-05  1378.8382      344.70955      344.70955      6.0039933e-05  1.6384e+08   
     61800   0.19964152    -21.251787      0.29945913    -20.952328      3.939979e-05   5.5516032e-05  5.6716664e-05  1378.8382      344.70955      344.70955      5.0544162e-05  1.6384e+08   
     61900   0.19975041    -21.251124      0.29962247    -20.951501      5.9897979e-05  7.0493664e-05  6.4825839e-05  1378.8382      344.70955      344.70955      6.5072494e-05  1.6384e+08   
     62000   0.20085337    -21.250905      0.30127689    -20.949628      5.1101404e-05  5.6250383e-05  4.4511253e-05  1378.8382      344.70955      344.70955      5.0621013e-05  1.6384e+08   
     62100   0.20076999    -21.250798      0.30115182    -20.949646      6.1086052e-05  3.9151665e-05  3.7661286e-05  1378.8382      344.70955      344.70955      4.5966334e-05  1.6384e+08   
     62200   0.20058639    -21.252329      0.30087642    -20.951452      5.1303576e-05  7.3174686e-05  2.5559641e-05  1378.8382      344.70955      344.70955      5.0012635e-05  1.6384e+08   
     62300   0.19940202    -21.250682      0.29909989    -20.951582      2.0811388e-05  3.8411672e-05  7.236824e-05   1378.8382      344.70955      344.70955      4.3863766e-05  1.6384e+08   
     62400   0.20015854    -21.250909      0.30023466    -20.950675      5.9847989e-05  6.3198444e-05  5.9358108e-05  1378.8382      344.70955      344.70955      6.0801514e-05  1.6384e+08   
     62500   0.20007084    -21.250152      0.30010311    -20.950049      2.2592454e-05  6.01665e-05    3.3852624e-05  1378.8382      344.70955      344.70955      3.8870526e-05  1.6384e+08   
     62600   0.19960907    -21.250048      0.29941046    -20.950638      5.2500125e-05  6.1798001e-05  6.7463866e-05  1378.8382      344.70955      344.70955      6.058733e-05   1.6384e+08   
     62700   0.19941276    -21.251146      0.299116      -20.95203       6.0863686e-05  4.4499872e-05  5.3893947e-05  1378.8382      344.70955      344.70955      5.3085835e-05  1.6384e+08   
     62800   0.19972367    -21.251046      0.29958236    -20.951464      7.6051681e-05  4.6004283e-05  7.5092084e-05  1378.8382      344.70955      344.70955      6.5716016e-05  1.6384e+08   
     62900   0.20063019    -21.250939      0.30094213    -20.949997      6.4407236e-05  7.9696615e-05  8.2037847e-05  1378.8382      344.70955      344.70955      7.5380566e-05  1.6384e+08   
     63000   0.20031114    -21.250115      0.30046356    -20.949651      4.8628204e-05  4.8498714e-05  4.6249625e-05  1378.8382      344.70955      344.70955      4.7792181e-05  1.6384e+08   
     63100   0.20047018    -21.250593      0.30070211    -20.949891      9.0361126e-05  4.6349473e-05  3.7055751e-05  1378.8382      344.70955      344.70955      5.7922117e-05  1.6384e+08   
     63200   0.19988083    -21.250524      0.29981809    -20.950705      4.2025947e-05  4.8363298e-05  9.2638834e-05  1378.8382      344.70955      344.70955      6.100936e-05   1.6384e+08   
     63300   0.19976163    -21.250522      0.29963929    -20.950883      6.2276911e-05  5.609902e-05   5.6882474e-05  1378.8382      344.70955      344.70955      5.8419468e-05  1.6384e+08   
     63400   0.19997175    -21.250021      0.29995447    -20.950067      4.7805864e-05  8.9956997e-05  1.9893055e-05  1378.8382      344.70955      344.70955      5.2551972e-05  1.6384e+08   
     63500   0.20164181    -21.250509      0.30245954    -20.948049      5.0140678e-05  5.824757e-05   6.631197e-05   1378.8382      344.70955      344.70955      5.8233406e-05  1.6384e+08   
     63600   0.20057552    -21.24987       0.30086013    -20.949009      2.9636234e-05  6.1971855e-05  3.3540935e-05  1378.8382      344.70955      344.70955      4.1716341e-05  1.6384e+08   
     63700   0.19988813    -21.249714      0.29982905    -20.949885      7.2658532e-05  5.2859721e-05  4.5681442e-05  1378.8382      344.70955      344.70955      5.7066565e-05  1.6384e+08   
     63800   0.20002422    -21.250106      0.30003318    -20.950073      7.6126334e-05  6.7178134e-05  7.1617915e-05  1378.8382      344.70955      344.70955      7.1640794e-05  1.6384e+08   
     63900   0.19962084    -21.249901      0.29942811    -20.950473      6.1438348e-05  5.9709844e-05  6.0122137e-05  1378.8382      344.70955      344.70955      6.0423443e-05  1.6384e+08   
     64000   0.1994472     -21.249517      0.29916765    -20.95035       9.4582515e-05  8.5297203e-05  4.6895843e-05  1378.8382      344.70955      344.70955      7.5591854e-05  1.6384e+08   
     64100   0.20051469    -21.249796      0.30076887    -20.949027      3.5880425e-05  4.6911199e-05  3.4717475e-05  1378.8382      344.70955      344.70955      3.91697e-05    1.6384e+08   
     64200   0.20083148    -21.249428      0.30124406    -20.948184      5.2082613e-05  6.6627251e-05  9.5265583e-05  1378.8382      344.70955      344.70955      7.1325149e-05  1.6384e+08   
     64300   0.19999033    -21.2497        0.29998234    -20.949717      4.5154961e-05  3.3824332e-05  1.1430323e-05  1378.8382      344.70955      344.70955      3.0136539e-05  1.6384e+08   
     64400   0.19968726    -21.249805      0.29952775    -20.950277      5.8584184e-05  7.0329472e-05  5.1300637e-05  1378.8382      344.70955      344.70955      6.0071431e-05  1.6384e+08   
     64500   0.20014616    -21.249936      0.30021609    -20.94972       4.3886736e-05  3.4259838e-05  3.570413e-05   1378.8382      344.70955      344.70955      3.7950235e-05  1.6384e+08   
     64600   0.2001535     -21.249237      0.30022709    -20.94901       3.5188979e-05  4.0920573e-05  7.5461935e-05  1378.8382      344.70955      344.70955      5.0523829e-05  1.6384e+08   
     64700   0.20083689    -21.249445      0.30125217    -20.948192      4.434851e-05   7.2266872e-05  6.9745729e-05  1378.8382      344.70955      344.70955      6.212037e-05   1.6384e+08   
     64800   0.20055718    -21.249303      0.30083261    -20.94847       5.2426349e-05  7.3715586e-05  7.3540457e-05  1378.8382      344.70955      344.70955      6.6560797e-05  1.6384e+08   
     64900   0.20009441    -21.249981      0.30013846    -20.949843      0.00010652358  2.8459923e-05  7.3229453e-05  1378.8382      344.70955      344.70955      6.9404319e-05  1.6384e+08   
     65000   0.19968457    -21.249682      0.29952371    -20.950159      3.3071698e-05  5.6713764e-05  5.6093595e-05  1378.8382      344.70955      344.70955      4.8626352e-05  1.6384e+08   
     65100   0.19968863    -21.248482      0.2995298     -20.948952      4.4054143e-05  5.3458756e-05  6.0387407e-05  1378.8382      344.70955      344.70955      5.2633435e-05  1.6384e+08   
     65200   0.20074884    -21.248242      0.3011201     -20.947122      4.794101e-05   3.5846472e-05  4.4438654e-05  1378.8382      344.70955      344.70955      4.2742045e-05  1.6384e+08   
     65300   0.20059501    -21.248384      0.30088935    -20.947495      5.1226068e-05  5.3838376e-05  7.5849815e-05  1378.8382      344.70955      344.70955      6.0304753e-05  1.6384e+08   
     65400   0.2005014     -21.249152      0.30074894    -20.948403      8.0046817e-05  5.767893e-05   7.4617597e-05  1378.8382      344.70955      344.70955      7.0781115e-05  1.6384e+08   
     65500   0.20004095    -21.24886       0.30005827    -20.948802      3.797785e-05   9.9411317e-05  7.7039782e-05  1378.8382      344.70955      344.70955      7.1476316e-05  1.6384e+08   
     65600   0.20028719    -21.249388      0.30042762    -20.94896       5.8614556e-05  3.9641209e-05  4.3435433e-05  1378.8382      344.70955      344.70955      4.7230399e-05  1.6384e+08   
     65700   0.19986408    -21.248705      0.29979297    -20.948912      6.7704049e-05  5.9537698e-05  8.6558456e-05  1378.8382      344.70955      344.70955      7.1266734e-05  1.6384e+08   
     65800   0.19999639    -21.248653      0.29999143    -20.948662      9.5272401e-05  5.1119848e-05  7.4609829e-05  1378.8382      344.70955      344.70955      7.3667359e-05  1.6384e+08   
     65900   0.19970446    -21.248124      0.29955355    -20.948571      3.3947808e-05  2.3345975e-05  4.3567393e-05  1378.8382      344.70955      344.70955      3.3620392e-05  1.6384e+08   
     66000   0.20030832    -21.248544      0.30045933    -20.948084      5.4646417e-05  2.7131803e-05  2.4176711e-05  1378.8382      344.70955      344.70955      3.531831e-05   1.6384e+08   
     66100   0.20019873    -21.24816       0.30029494    -20.947865      4.9103219e-05  3.3062013e-05  5.2048152e-05  1378.8382      344.70955      344.70955      4.4737794e-05  1.6384e+08   
     66200   0.19999803    -21.248548      0.29999389    -20.948554      3.848493e-05   8.4254512e-05  6.1278148e-05  1378.8382      344.70955      344.70955      6.1339197e-05  1.6384e+08   
     66300   0.19913486    -21.248148      0.29869915    -20.949449      6.251213e-05   5.3575072e-05  3.4916848e-05  1378.8382      344.70955      344.70955      5.0334683e-05  1.6384e+08   
     66400   0.19993573    -21.248502      0.29990045    -20.948602      6.8329143e-05  3.30487e-05    5.2610912e-05  1378.8382      344.70955      344.70955      5.1329585e-05  1.6384e+08   
     66500   0.20081353    -21.24769       0.30121714    -20.946473      2.0614168e-05  6.7020575e-05  4.2720438e-05  1378.8382      344.70955      344.70955      4.3451727e-05  1.6384e+08   
     66600   0.20094144    -21.248122      0.30140899    -20.946713      4.3869641e-05  3.5081986e-05  3.2638871e-05  1378.8382      344.70955      344.70955      3.7196833e-05  1.6384e+08   
     66700   0.20051792    -21.248431      0.30077372    -20.947657      4.3776124e-05  3.6570855e-05  4.8729181e-05  1378.8382      344.70955      344.70955      4.3025387e-05  1.6384e+08   
     66800   0.19986042    -21.247755      0.29978748    -20.947967      3.4691965e-05  4.7085497e-05  4.5136617e-05  1378.8382      344.70955      344.70955      4.2304693e-05  1.6384e+08   
     66900   0.20000501    -21.247936      0.30000436    -20.947932      5.2333727e-05  6.2087091e-05  6.1359133e-05  1378.8382      344.70955      344.70955      5.8593317e-05  1.6384e+08   
     67000   0.20046161    -21.248173      0.30068925    -20.947484      3.8730235e-05  6.8974495e-05  5.0642622e-05  1378.8382      344.70955      344.70955      5.2782451e-05  1.6384e+08   
     67100   0.20025134    -21.247195      0.30037385    -20.946821      5.5321033e-05  6.2693408e-05  5.1755617e-05  1378.8382      344.70955      344.70955      5.6590019e-05  1.6384e+08   
     67200   0.19961055    -21.246918      0.29941268    -20.947505      7.3018009e-05  6.2656767e-05  8.0844818e-05  1378.8382      344.70955      344.70955      7.2173198e-05  1.6384e+08   
     67300   0.19973318    -21.248135      0.29959662    -20.948538      8.1589492e-05  7.0418023e-05  7.8083379e-05  1378.8382      344.70955      344.70955      7.6696965e-05  1.6384e+08   
     67400   0.19931589    -21.247325      0.29897069    -20.948354      8.6531657e-05  9.9664248e-05  5.1071742e-05  1378.8382      344.70955      344.70955      7.9089215e-05  1.6384e+08   
     67500   0.20048129    -21.246911      0.30071877    -20.946193      6.5045378e-05  5.5652399e-05  3.2129389e-05  1378.8382      344.70955      344.70955      5.0942388e-05  1.6384e+08   
     67600   0.20052482    -21.246626      0.30078406    -20.945842      6.4855499e-05  5.0966786e-05  3.88858e-05    1378.8382      344.70955      344.70955      5.1569361e-05  1.6384e+08   
     67700   0.19981568    -21.246242      0.29972037    -20.946521      4.8017965e-05  3.9267721e-05  2.2347429e-05  1378.8382      344.70955      344.70955      3.6544371e-05  1.6384e+08   
     67800   0.20023193    -21.24737       0.30034475    -20.947025      6.0555054e-05  4.9572801e-05  7.8420327e-05  1378.8382      344.70955      344.70955      6.2849394e-05  1.6384e+08   
     67900   0.19997089    -21.24729       0.29995318    -20.947336      4.7036219e-05  5.3365393e-05  6.2847453e-05  1378.8382      344.70955      344.70955      5.4416355e-05  1.6384e+08   
     68000   0.19966635    -21.247194      0.29949638    -20.947697      5.9719569e-05  7.1376262e-05  5.3688735e-05  1378.8382      344.70955      344.70955      6.1594855e-05  1.6384e+08   
     68100   0.19930186    -21.246963      0.29894966    -20.948013      2.9343348e-05  7.6043341e-05  5.7117622e-05  1378.8382      344.70955      344.70955      5.4168103e-05  1.6384e+08   
     68200   0.19968982    -21.246372      0.29953159    -20.94684       6.8460099e-05  4.4793236e-05  6.5912836e-05  1378.8382      344.70955      344.70955      5.9722057e-05  1.6384e+08   
     68300   0.20070257    -21.246488      0.30105069    -20.945438      7.167483e-05   9.0944245e-05  7.9800125e-05  1378.8382      344.70955      344.70955      8.08064e-05    1.6384e+08   
     68400   0.20049369    -21.24692       0.30073738    -20.946183      5.8327125e-05  5.1235211e-05  8.5867927e-05  1378.8382      344.70955      344.70955      6.5143421e-05  1.6384e+08   
     68500   0.19928727    -21.246249      0.29892777    -20.947321      3.6922912e-05  5.8319305e-05  4.8934752e-05  1378.8382      344.70955      344.70955      4.805899e-05   1.6384e+08   
     68600   0.19964565    -21.246289      0.29946532    -20.946824      6.1060589e-05  7.6651879e-05  4.6321508e-05  1378.8382      344.70955      344.70955      6.1344659e-05  1.6384e+08   
     68700   0.19994863    -21.246314      0.29991979    -20.946394      7.3234476e-05  5.7857588e-05  4.1015971e-05  1378.8382      344.70955      344.70955      5.7369345e-05  1.6384e+08   
     68800   0.2002694     -21.246387      0.30040094    -20.945986      5.4746594e-05  5.9350572e-05  7.1774358e-05  1378.8382      344.70955      344.70955      6.1957175e-05  1.6384e+08   
     68900   0.1998496     -21.246294      0.29977124    -20.946523      4.1134179e-05  7.0993576e-05  5.6431228e-05  1378.8382      344.70955      344.70955      5.6186328e-05  1.6384e+08   
     69000   0.19905818    -21.246455      0.29858413    -20.947871      7.0553246e-05  8.6394733e-05  8.8980141e-05  1378.8382      344.70955      344.70955      8.197604e-05   1.6384e+08   
     69100   0.19995428    -21.246911      0.29992828    -20.946982      5.2382688e-05  8.3555491e-05  9.8336237e-05  1378.8382      344.70955      344.70955      7.8091472e-05  1.6384e+08   
     69200   0.20062488    -21.246243      0.30093416    -20.945309      4.2919665e-05  5.739389e-05   5.3271962e-05  1378.8382      344.70955      344.70955      5.1195172e-05  1.6384e+08   
     69300   0.20009531    -21.245384      0.30013981    -20.945244      2.8875583e-05  4.4982531e-05  2.6120045e-05  1378.8382      344.70955      344.70955      3.3326053e-05  1.6384e+08   
     69400   0.19996326    -21.245806      0.29994174    -20.945864      3.8851356e-05  5.7845289e-05  6.2465503e-05  1378.8382      344.70955      344.70955      5.3054049e-05  1.6384e+08   
     69500   0.19998983    -21.246206      0.29998159    -20.946224      6.3024842e-05  8.5956357e-05  5.2870574e-05  1378.8382      344.70955      344.70955      6.7283925e-05  1.6384e+08   
     69600   0.19998952    -21.245992      0.29998112    -20.94601       7.543769e-05   4.1608515e-05  6.6678302e-05  1378.8382      344.70955      344.70955      6.1241502e-05  1.6384e+08   
     69700   0.20037337    -21.246146      0.30055689    -20.945589      3.4473469e-05  5.0277061e-05  6.0932021e-05  1378.8382      344.70955      344.70955      4.8560851e-05  1.6384e+08   
     69800   0.20063528    -21.246144      0.30094975    -20.945195      8.051742e-05   2.4411176e-05  0.00010120164  1378.8382      344.70955      344.70955      6.8710078e-05  1.6384e+08   
     69900   0.19950209    -21.245523      0.29924999    -20.946273      1.1668098e-05  4.9126622e-05  2.6787737e-05  1378.8382      344.70955      344.70955      2.9194152e-05  1.6384e+08   
     70000   0.19918331    -21.245707      0.29877183    -20.946935      3.5271652e-05  3.2945747e-05  5.0715613e-05  1378.8382      344.70955      344.70955      3.9644337e-05  1.6384e+08   
     70100   0.20007253    -21.245403      0.30010564    -20.945297      3.6152422e-05  3.2680911e-05  5.5182872e-05  1378.8382      344.70955      344.70955      4.1338735e-05  1.6384e+08   
     70200   0.20124058    -21.245682      0.30185769    -20.943824      2.3420302e-05  6.5969291e-05  3.0375986e-05  1378.8382      344.70955      344.70955      3.992186e-05   1.6384e+08   
     70300   0.20054235    -21.245345      0.30081036    -20.944535      6.3559439e-05  4.4746909e-05  5.6374195e-05  1378.8382      344.70955      344.70955      5.4893514e-05  1.6384e+08   
     70400   0.20009586    -21.245248      0.30014063    -20.945107      4.8385397e-05  0.00012553186  5.7155226e-05  1378.8382      344.70955      344.70955      7.702416e-05   1.6384e+08   
     70500   0.19971384    -21.245137      0.29956761    -20.945569      6.6365376e-05  8.3435158e-05  7.177237e-05   1378.8382      344.70955      344.70955      7.3857634e-05  1.6384e+08   
     70600   0.19969023    -21.244992      0.2995322     -20.94546       5.5211742e-05  6.1616771e-05  5.4860386e-05  1378.8382      344.70955      344.70955      5.7229633e-05  1.6384e+08   
     70700   0.2011691     -21.245244      0.30175048    -20.943494      1.79481e-05    3.4083705e-05  3.3430491e-05  1378.8382      344.70955      344.70955      2.8487432e-05  1.6384e+08   
     70800   0.20156881    -21.244934      0.30235004    -20.942584      2.7238674e-05  1.0919359e-05  3.2055333e-05  1378.8382      344.70955      344.70955      2.3404456e-05  1.6384e+08   
     70900   0.20056533    -21.245079      0.30084483    -20.944234      4.0753706e-05  5.201875e-05   3.9328074e-05  1378.8382      344.70955      344.70955      4.403351e-05   1.6384e+08   
     71000   0.19994357    -21.244844      0.2999122     -20.944932      5.9340454e-05  6.1040958e-05  8.525262e-05   1378.8382      344.70955      344.70955      6.8544677e-05  1.6384e+08   
     71100   0.19934195    -21.244051      0.29900978    -20.945041      6.0667261e-05  6.7668873e-05  5.9199858e-05  1378.8382      344.70955      344.70955      6.2511997e-05  1.6384e+08   
     71200   0.2004685     -21.245172      0.30069959    -20.944472      6.5218728e-05  5.8286016e-05  7.2782811e-05  1378.8382      344.70955      344.70955      6.5429185e-05  1.6384e+08   
     71300   0.20100555    -21.245111      0.30150516    -20.943606      5.8910475e-05  8.0072765e-05  8.2946663e-05  1378.8382      344.70955      344.70955      7.3976634e-05  1.6384e+08   
     71400   0.20000678    -21.245043      0.30000702    -20.945036      4.9641319e-05  4.0703711e-05  4.4522278e-05  1378.8382      344.70955      344.70955      4.4955769e-05  1.6384e+08   
     71500   0.19959042    -21.245101      0.29938249    -20.945719      8.9462785e-05  3.7142945e-05  2.5491326e-05  1378.8382      344.70955      344.70955      5.0699019e-05  1.6384e+08   
     71600   0.19992766    -21.244675      0.29988835    -20.944786      7.338255e-05   5.0297728e-05  3.7666e-05     1378.8382      344.70955      344.70955      5.3782092e-05  1.6384e+08   
     71700   0.20061258    -21.244438      0.3009157     -20.943522      3.882428e-05   2.6338872e-05  3.2469451e-05  1378.8382      344.70955      344.70955      3.2544201e-05  1.6384e+08   
     71800   0.20065266    -21.244512      0.30097583    -20.943537      6.9787385e-05  6.4729609e-05  4.4714944e-05  1378.8382      344.70955      344.70955      5.9743979e-05  1.6384e+08   
     71900   0.19873515    -21.243704      0.29809959    -20.945604      5.3586579e-05  6.3186125e-05  4.2953142e-05  1378.8382      344.70955      344.70955      5.3241949e-05  1.6384e+08   
     72000   0.19928946    -21.244234      0.29893104    -20.945303      1.9989526e-05 -3.7245083e-06  2.2274156e-05  1378.8382      344.70955      344.70955      1.2846391e-05  1.6384e+08   
     72100   0.20042355    -21.244121      0.30063217    -20.943489      4.3468698e-05  5.9924305e-05  2.7524235e-05  1378.8382      344.70955      344.70955      4.3639079e-05  1.6384e+08   
     72200   0.20014093    -21.243293      0.30020823    -20.943085      3.4345669e-05  3.8373075e-05  4.5131178e-05  1378.8382      344.70955      344.70955      3.9283307e-05  1.6384e+08   
     72300   0.19991102    -21.24405       0.29986338    -20.944186      4.8164047e-05  7.6062043e-05  3.5992319e-05  1378.8382      344.70955      344.70955      5.3406136e-05  1.6384e+08   
     72400   0.19975344    -21.24481       0.29962701    -20.945183      6.1390466e-05  8.9441406e-05  3.4987999e-05  1378.8382      344.70955      344.70955      6.1939957e-05  1.6384e+08   
     72500   0.19924636    -21.243441      0.2988664     -20.944575      1.2587611e-05  4.0966337e-05  4.6359179e-05  1378.8382      344.70955      344.70955      3.3304376e-05  1.6384e+08   
     72600   0.19971045    -21.243353      0.29956253    -20.943791      2.5888983e-05  5.9961646e-05  4.9190629e-05  1378.8382      344.70955      344.70955      4.5013753e-05  1.6384e+08   
     72700   0.19968683    -21.242786      0.29952709    -20.943259      6.0005138e-05  5.069039e-05   4.8229603e-05  1378.8382      344.70955      344.70955      5.2975043e-05  1.6384e+08   
     72800   0.19989063    -21.243394      0.29983279    -20.943561      6.6930309e-05  6.3754822e-05  7.856911e-05   1378.8382      344.70955      344.70955      6.9751414e-05  1.6384e+08   
     72900   0.1992732     -21.243656      0.29890666    -20.944749      6.335656e-05   7.1307846e-05  0.00010960547  1378.8382      344.70955      344.70955      8.1423291e-05  1.6384e+08   
     73000   0.19928722    -21.243848      0.29892769    -20.94492       6.3433625e-05  8.6466772e-05  0.00010272221  1378.8382      344.70955      344.70955      8.4207534e-05  1.6384e+08   
     73100   0.20104719    -21.244161      0.30156761    -20.942593      5.085877e-05   8.3151674e-05  7.5181076e-05  1378.8382      344.70955      344.70955      6.9730507e-05  1.6384e+08   
     73200   0.20060656    -21.2429        0.30090668    -20.941994      7.0235915e-05  6.3662956e-05  0.0001027759   1378.8382      344.70955      344.70955      7.889159e-05   1.6384e+08   
     73300   0.20046205    -21.243575      0.30068991    -20.942885      2.7353373e-05  4.2625298e-05  4.962618e-05   1378.8382      344.70955      344.70955      3.9868283e-05  1.6384e+08   
     73400   0.2001455     -21.243884      0.30021509    -20.943669      7.0656888e-05  6.5711702e-05  7.9697127e-05  1378.8382      344.70955      344.70955      7.2021906e-05  1.6384e+08   
     73500   0.1993337     -21.242884      0.2989974     -20.943887      2.9330238e-05  5.6678027e-05  5.3716798e-05  1378.8382      344.70955      344.70955      4.6575021e-05  1.6384e+08   
     73600   0.19978269    -21.242914      0.29967088    -20.943243      8.1526435e-05  3.9610992e-05  7.8621297e-05  1378.8382      344.70955      344.70955      6.6586241e-05  1.6384e+08   
     73700   0.20025787    -21.243016      0.30038365    -20.942632      7.9093852e-05  4.8208309e-05  6.4712117e-05  1378.8382      344.70955      344.70955      6.4004759e-05  1.6384e+08   
     73800   0.20048634    -21.243332      0.30072635    -20.942606      5.8075545e-05  7.8195933e-05  6.1301259e-05  1378.8382      344.70955      344.70955      6.5857579e-05  1.6384e+08   
     73900   0.1998401     -21.242945      0.299757      -20.943188      1.8504477e-05  2.9346678e-05  8.4399841e-06  1378.8382      344.70955      344.70955      1.8763713e-05  1.6384e+08   
     74000   0.19978622    -21.242832      0.29967617    -20.943156      3.0312193e-05  3.1198401e-05  6.7510503e-05  1378.8382      344.70955      344.70955      4.3007033e-05  1.6384e+08   
     74100   0.19974838    -21.24248       0.29961942    -20.942861      2.652116e-05   4.4631364e-05  2.6356434e-05  1378.8382      344.70955      344.70955      3.2502986e-05  1.6384e+08   
     74200   0.1999243     -21.242633      0.29988331    -20.94275       4.0628275e-05  5.0055472e-05  4.2459778e-05  1378.8382      344.70955      344.70955      4.4381175e-05  1.6384e+08   
     74300   0.19974547    -21.24265       0.29961506    -20.943035      7.087797e-05   5.0315951e-05  4.593712e-05   1378.8382      344.70955      344.70955      5.5710347e-05  1.6384e+08   
     74400   0.19969214    -21.242807      0.29953507    -20.943272      5.9068792e-05  4.6990581e-05  5.9757912e-05  1378.8382      344.70955      344.70955      5.5272428e-05  1.6384e+08   
     74500   0.19976739    -21.242133      0.29964793    -20.942485      3.1121514e-05  5.7993664e-05  5.0380932e-05  1378.8382      344.70955      344.70955      4.6498704e-05  1.6384e+08   
     74600   0.20087612    -21.242441      0.30131102    -20.94113       6.7291704e-05  3.556686e-05   5.8830714e-05  1378.8382      344.70955      344.70955      5.3896426e-05  1.6384e+08   
     74700   0.20018694    -21.241919      0.30027726    -20.941642      4.8578385e-05  3.7831037e-05  4.7076156e-05  1378.8382      344.70955      344.70955      4.4495193e-05  1.6384e+08   
     74800   0.19976633    -21.242781      0.29964635    -20.943135      5.4494472e-05  6.7521183e-05 -7.8236556e-06  1378.8382      344.70955      344.70955      3.8064e-05     1.6384e+08   
     74900   0.19971145    -21.242511      0.29956403    -20.942947      6.297889e-05   3.800149e-05   4.4661459e-05  1378.8382      344.70955      344.70955      4.854728e-05   1.6384e+08   
     75000   0.20000921    -21.242048      0.30001067    -20.942038      6.5633685e-05  3.3647344e-05  3.7900621e-05  1378.8382      344.70955      344.70955      4.5727216e-05  1.6384e+08   
     75100   0.20007666    -21.241759      0.30011183    -20.941647      3.2976705e-05  3.4746311e-05  5.7911311e-05  1378.8382      344.70955      344.70955      4.1878109e-05  1.6384e+08   
     75200   0.19937794    -21.241983      0.29906377    -20.94292       6.8910025e-05  5.73616e-05    3.7837131e-05  1378.8382      344.70955      344.70955      5.4702919e-05  1.6384e+08   
     75300   0.19918603    -21.242494      0.2987759     -20.943718      8.0390745e-05  1.5789531e-05  7.7643268e-05  1378.8382      344.70955      344.70955      5.7941181e-05  1.6384e+08   
     75400   0.19961673    -21.241673      0.29942196    -20.942251      4.4379913e-06  4.3332523e-05  5.768381e-05   1378.8382      344.70955      344.70955      3.5151442e-05  1.6384e+08   
     75500   0.20020308    -21.241279      0.30030146    -20.940977      3.3043294e-05  4.7413507e-05  3.2095552e-05  1378.8382      344.70955      344.70955      3.7517451e-05  1.6384e+08   
     75600   0.20033044    -21.241641      0.3004925     -20.941149      3.3834211e-05  6.502721e-05   5.9473411e-05  1378.8382      344.70955      344.70955      5.2778277e-05  1.6384e+08   
     75700   0.19984088    -21.241495      0.29975817    -20.941737      4.6016473e-05  5.7258824e-05  6.4604491e-05  1378.8382      344.70955      344.70955      5.5959929e-05  1.6384e+08   
     75800   0.20007246    -21.242015      0.30010554    -20.94191       5.634534e-05   5.0443249e-05  4.7555699e-05  1378.8382      344.70955      344.70955      5.1448096e-05  1.6384e+08   
     75900   0.19978       -21.241493      0.29966685    -20.941826      6.0684216e-05  4.7747207e-05  4.2219323e-05  1378.8382      344.70955      344.70955      5.0216915e-05  1.6384e+08   
     76000   0.20009663    -21.241398      0.30014179    -20.941256      2.981616e-05   4.4045234e-05  5.705232e-05   1378.8382      344.70955      344.70955      4.3637905e-05  1.6384e+08   
     76100   0.20056285    -21.241843      0.30084112    -20.941002      5.3006202e-05  2.4647837e-05  5.3667556e-05  1378.8382      344.70955      344.70955      4.3773865e-05  1.6384e+08   
     76200   0.19923609    -21.241176      0.29885099    -20.942325      5.2611828e-05  6.4777792e-05  4.7345924e-05  1378.8382      344.70955      344.70955      5.4911848e-05  1.6384e+08   
     76300   0.19910514    -21.241455      0.29865457    -20.942801      3.9043244e-05  2.1347996e-05  3.6195189e-05  1378.8382      344.70955      344.70955      3.2195476e-05  1.6384e+08   
     76400   0.19970512    -21.240848      0.29955453    -20.941293      5.3832535e-05  5.4168374e-05  5.2942733e-05  1378.8382      344.70955      344.70955      5.3647881e-05  1.6384e+08   
     76500   0.20095646    -21.241604      0.30143152    -20.940173      4.7678082e-05  4.8281045e-05  5.9449403e-05  1378.8382      344.70955      344.70955      5.1802843e-05  1.6384e+08   
     76600   0.1999173     -21.240719      0.2998728     -20.940846      3.9164445e-05  4.1919061e-05  3.8995027e-05  1378.8382      344.70955      344.70955      4.0026178e-05  1.6384e+08   
     76700   0.19957411    -21.241115      0.29935802    -20.941757      4.1168148e-05  5.7922901e-05  4.7320861e-05  1378.8382      344.70955      344.70955      4.880397e-05   1.6384e+08   
     76800   0.19993069    -21.241194      0.29989289    -20.941302      6.1749211e-05  6.5076055e-05  0.00010172057  1378.8382      344.70955      344.70955      7.6181946e-05  1.6384e+08   
     76900   0.20041936    -21.241695      0.30062589    -20.941069      5.4759536e-05  7.1535757e-05  5.2903459e-05  1378.8382      344.70955      344.70955      5.9732917e-05  1.6384e+08   
     77000   0.19949355    -21.240217      0.29923719    -20.940979      5.1644613e-05  4.431687e-05   5.8075243e-05  1378.8382      344.70955      344.70955      5.1345575e-05  1.6384e+08   
     77100   0.19961246    -21.240163      0.29941555    -20.940747      4.5010971e-05  1.3006889e-05  4.3542849e-05  1378.8382      344.70955      344.70955      3.385357e-05   1.6384e+08   
     77200   0.20038958    -21.240736      0.30058121    -20.940155      4.2590671e-05  6.8882529e-05  5.710985e-05   1378.8382      344.70955      344.70955      5.619435e-05   1.6384e+08   
     77300   0.20055877    -21.241101      0.300835      -20.940266      7.6799674e-05  4.1801958e-05  6.2328507e-05  1378.8382      344.70955      344.70955      6.0310046e-05  1.6384e+08   
     77400   0.19957095    -21.240933      0.29935329    -20.94158       5.7476498e-05  2.4251834e-05  5.0955447e-05  1378.8382      344.70955      344.70955      4.4227926e-05  1.6384e+08   
     77500   0.19925941    -21.240704      0.29888598    -20.941818      4.9622362e-05  7.0092146e-05  3.6437205e-05  1378.8382      344.70955      344.70955      5.2050571e-05  1.6384e+08   
     77600   0.20030763    -21.240735      0.30045829    -20.940277      5.7349707e-05  1.1887352e-05  5.6294989e-05  1378.8382      344.70955      344.70955      4.1844016e-05  1.6384e+08   
     77700   0.20091526    -21.240256      0.30136972    -20.938886      2.7553732e-05  7.8999843e-05  4.184462e-05   1378.8382      344.70955      344.70955      4.9466065e-05  1.6384e+08   
     77800   0.2005186     -21.240576      0.30077473    -20.939801      6.390484e-05   5.6645992e-05  6.1959401e-05  1378.8382      344.70955      344.70955      6.0836744e-05  1.6384e+08   
     77900   0.20000706    -21.240809      0.30000744    -20.940801      1.8993727e-05  3.0687758e-05  2.7736926e-05  1378.8382      344.70955      344.70955      2.5806137e-05  1.6384e+08   
     78000   0.19943923    -21.239989      0.2991557     -20.940833      5.3544209e-05  7.672459e-05   4.1815577e-05  1378.8382      344.70955      344.70955      5.7361459e-05  1.6384e+08   
     78100   0.20010347    -21.240219      0.30015205    -20.940067      5.4358823e-05  6.7359167e-05  7.0885138e-05  1378.8382      344.70955      344.70955      6.4201043e-05  1.6384e+08   
     78200   0.19989232    -21.23922       0.29983533    -20.939384      5.9006611e-05  5.3245821e-05  4.7633577e-05  1378.8382      344.70955      344.70955      5.3295336e-05  1.6384e+08   
     78300   0.20045785    -21.239818      0.30068362    -20.939134      4.6182792e-05  6.1917157e-05  9.2393846e-05  1378.8382      344.70955      344.70955      6.6831265e-05  1.6384e+08   
     78400   0.19999282    -21.240626      0.29998607    -20.94064       5.7202513e-05  4.8714442e-05  7.6099965e-05  1378.8382      344.70955      344.70955      6.0672306e-05  1.6384e+08   
     78500   0.19907074    -21.239881      0.29860297    -20.941278      5.6948228e-05  3.9019226e-05  3.6054737e-05  1378.8382      344.70955      344.70955      4.4007397e-05  1.6384e+08   
     78600   0.19956062    -21.239414      0.29933778    -20.940076      4.2934182e-05  2.8060664e-05  7.4726393e-05  1378.8382      344.70955      344.70955      4.8573746e-05  1.6384e+08   
     78700   0.20044926    -21.239511      0.30067073    -20.93884       6.5264509e-05  6.4599401e-05  6.7858985e-05  1378.8382      344.70955      344.70955      6.5907632e-05  1.6384e+08   
     78800   0.20016792    -21.239563      0.30024873    -20.939314      8.0137044e-05  4.8887324e-05  7.1487113e-05  1378.8382      344.70955      344.70955      6.683716e-05   1.6384e+08   
     78900   0.20017631    -21.239797      0.30026131    -20.939536      2.3434431e-05  6.3920226e-05  6.3876782e-05  1378.8382      344.70955      344.70955      5.0410479e-05  1.6384e+08   
     79000   0.20092641    -21.240942      0.30138645    -20.939555      4.0814437e-05  2.1123333e-05  5.9403744e-05  1378.8382      344.70955      344.70955      4.0447172e-05  1.6384e+08   
     79100   0.19977387    -21.240179      0.29965766    -20.940522      5.7692051e-05  2.5569863e-05  3.7527296e-05  1378.8382      344.70955      344.70955      4.026307e-05   1.6384e+08   
     79200   0.19907241    -21.239474      0.29860548    -20.940869      2.5186175e-05  4.6201303e-05  2.3966213e-05  1378.8382      344.70955      344.70955      3.1784564e-05  1.6384e+08   
     79300   0.20026214    -21.239226      0.30039006    -20.938836      1.1467862e-05  2.6336285e-05  6.0363218e-05  1378.8382      344.70955      344.70955      3.2722455e-05  1.6384e+08   
     79400   0.20007011    -21.237997      0.30010201    -20.937895      6.5925757e-05  5.0844447e-05  3.2975737e-05  1378.8382      344.70955      344.70955      4.9915313e-05  1.6384e+08   
     79500   0.20045498    -21.239237      0.30067931    -20.938557      5.3680417e-05  5.3664206e-05  3.3121341e-05  1378.8382      344.70955      344.70955      4.6821988e-05  1.6384e+08   
     79600   0.19992949    -21.239505      0.29989108    -20.939614      4.5582301e-05  4.0409944e-05  6.2474971e-05  1378.8382      344.70955      344.70955      4.9489072e-05  1.6384e+08   
     79700   0.19958911    -21.23941       0.29938052    -20.94003       2.5376509e-05  2.5003206e-05  5.2697642e-06  1378.8382      344.70955      344.70955      1.8549827e-05  1.6384e+08   
     79800   0.20029967    -21.23938       0.30044635    -20.938933      4.3933364e-05  2.6156104e-05  7.707339e-05   1378.8382      344.70955      344.70955      4.9054286e-05  1.6384e+08   
     79900   0.20080484    -21.238459      0.3012041     -20.937255      7.7127096e-05  8.2022941e-05  5.3605149e-05  1378.8382      344.70955      344.70955      7.0918395e-05  1.6384e+08   
     80000   0.20052891    -21.238491      0.30079021    -20.9377        5.3322946e-05  5.7184706e-05  7.2218741e-05  1378.8382      344.70955      344.70955      6.0908798e-05  1.6384e+08   
     80100   0.19978975    -21.239341      0.29968148    -20.93966       5.45629e-05    4.9966127e-05  5.8541534e-05  1378.8382      344.70955      344.70955      5.4356854e-05  1.6384e+08   
     80200   0.19948486    -21.238901      0.29922414    -20.939677      4.1923067e-05  5.5044903e-05  5.3115172e-05  1378.8382      344.70955      344.70955      5.0027714e-05  1.6384e+08   
     80300   0.20006679    -21.238811      0.30009703    -20.938714      1.499225e-05   6.5894678e-06  3.9957868e-05  1378.8382      344.70955      344.70955      2.0513195e-05  1.6384e+08   
     80400   0.20082775    -21.238454      0.30123847    -20.937215      2.1218837e-05  3.4635522e-05  8.3787893e-06  1378.8382      344.70955      344.70955      2.141105e-05   1.6384e+08   
     80500   0.20031599    -21.238214      0.30047083    -20.937743      2.5673371e-05  2.4929477e-05  8.4139808e-05  1378.8382      344.70955      344.70955      4.4914219e-05  1.6384e+08   
     80600   0.19943539    -21.23861       0.29914994    -20.93946       4.7866086e-05  6.2182167e-05  4.3536803e-05  1378.8382      344.70955      344.70955      5.1195019e-05  1.6384e+08   
     80700   0.19943378    -21.238108      0.29914753    -20.938961      3.3035962e-05  4.4798077e-05  4.2223119e-05  1378.8382      344.70955      344.70955      4.0019053e-05  1.6384e+08   
     80800   0.20060094    -21.238619      0.30089824    -20.93772       5.2092455e-05  5.5014093e-05  6.1138866e-05  1378.8382      344.70955      344.70955      5.6081805e-05  1.6384e+08   
     80900   0.20039032    -21.238414      0.30058233    -20.937832      9.0434703e-05  6.2361907e-05  6.6968617e-05  1378.8382      344.70955      344.70955      7.3255076e-05  1.6384e+08   
     81000   0.19915372    -21.23838       0.29872744    -20.939652      4.1941119e-05  4.5538033e-05  8.6449406e-05  1378.8382      344.70955      344.70955      5.7976186e-05  1.6384e+08   
     81100   0.19935469    -21.238445      0.29902889    -20.939417      4.2372347e-05  5.7854712e-05  6.9940513e-05  1378.8382      344.70955      344.70955      5.6722524e-05  1.6384e+08   
     81200   0.20008284    -21.238501      0.3001211     -20.938379      4.3017264e-05  5.4632973e-05  3.3908888e-05  1378.8382      344.70955      344.70955      4.3853041e-05  1.6384e+08   
     81300   0.19989198    -21.237678      0.29983483    -20.937843      3.3187646e-05  5.1299146e-05  5.4486678e-05  1378.8382      344.70955      344.70955      4.632449e-05   1.6384e+08   
     81400   0.20058737    -21.23826       0.30087789    -20.937382      5.2657299e-05  5.2880764e-05  6.2360717e-05  1378.8382      344.70955      344.70955      5.596626e-05   1.6384e+08   
     81500   0.20010372    -21.238085      0.30015242    -20.937933      6.7969035e-05  5.6190282e-05  7.8790826e-05  1378.8382      344.70955      344.70955      6.7650048e-05  1.6384e+08   
     81600   0.19843995    -21.237525      0.2976568     -20.939868      2.2647421e-05  4.0570897e-05  3.9764427e-05  1378.8382      344.70955      344.70955      3.4327582e-05  1.6384e+08   
     81700   0.19927908    -21.237555      0.29891548    -20.93864       6.0651972e-05  7.025818e-05   4.0744503e-05  1378.8382      344.70955      344.70955      5.7218219e-05  1.6384e+08   
     81800   0.19981754    -21.237104      0.29972317    -20.937381      8.169463e-05   5.5862951e-05  7.4934387e-05  1378.8382      344.70955      344.70955      7.0830656e-05  1.6384e+08   
     81900   0.20016003    -21.237412      0.3002369     -20.937175      5.2215716e-05  8.550393e-05   7.1053588e-05  1378.8382      344.70955      344.70955      6.9591078e-05  1.6384e+08   
     82000   0.19999491    -21.23764       0.29998921    -20.93765       4.5305113e-05  6.7172233e-05  3.5860186e-05  1378.8382      344.70955      344.70955      4.9445844e-05  1.6384e+08   
     82100   0.19943944    -21.238529      0.29915602    -20.939373      2.1788491e-05  7.417936e-05   5.2725413e-05  1378.8382      344.70955      344.70955      4.9564421e-05  1.6384e+08   
     82200   0.19952287    -21.238449      0.29928117    -20.939168      5.074362e-05   3.2693236e-05  2.5694348e-06  1378.8382      344.70955      344.70955      2.8668763e-05  1.6384e+08   
     82300   0.19969119    -21.237061      0.29953364    -20.937528      3.1229344e-05  6.5686891e-05  5.6051987e-05  1378.8382      344.70955      344.70955      5.0989407e-05  1.6384e+08   
     82400   0.20003617    -21.237002      0.3000511     -20.936951      3.1941289e-05  3.8754798e-07  3.5429498e-05  1378.8382      344.70955      344.70955      2.2586112e-05  1.6384e+08   
     82500   0.20009502    -21.237193      0.30013937    -20.937053      5.773322e-05   3.5437308e-05  4.1149656e-05  1378.8382      344.70955      344.70955      4.4773394e-05  1.6384e+08   
     82600   0.19986138    -21.237914      0.29978892    -20.938126      6.4333219e-05  6.1270703e-05  4.9608237e-05  1378.8382      344.70955      344.70955      5.8404053e-05  1.6384e+08   
     82700   0.19904168    -21.237181      0.29855938    -20.938621      4.6560971e-05  2.0595501e-05  5.1663018e-05  1378.8382      344.70955      344.70955      3.9606496e-05  1.6384e+08   
     82800   0.20044465    -21.236917      0.30066381    -20.936253      2.0912867e-05  4.0504338e-05  5.2416327e-05  1378.8382      344.70955      344.70955      3.7944511e-05  1.6384e+08   
     82900   0.20039119    -21.236166      0.30058363    -20.935582      5.6389412e-05  3.7883737e-05  3.1257168e-05  1378.8382      344.70955      344.70955      4.1843439e-05  1.6384e+08   
     83000   0.20001777    -21.236972      0.3000235     -20.936949      6.6423418e-05  1.1393377e-05  5.7164095e-05  1378.8382      344.70955      344.70955      4.499363e-05   1.6384e+08   
     83100   0.1996108     -21.23689       0.29941305    -20.937477      4.4662146e-05  3.8030771e-05  4.4067694e-05  1378.8382      344.70955      344.70955      4.2253537e-05  1.6384e+08   
     83200   0.20008361    -21.23719       0.30012226    -20.937067      3.8181537e-05  1.9877094e-05  6.9091703e-05  1378.8382      344.70955      344.70955      4.2383445e-05  1.6384e+08   
     83300   0.20052613    -21.23664       0.30078603    -20.935854      7.3408556e-05  6.5512477e-05  5.3159257e-05  1378.8382      344.70955      344.70955      6.4026763e-05  1.6384e+08   
     83400   0.20135793    -21.236563      0.30203372    -20.934529      7.78959e-05    4.7282175e-05  4.9939965e-05  1378.8382      344.70955      344.70955      5.837268e-05   1.6384e+08   
     83500   0.20026177    -21.236713      0.3003895     -20.936323      5.9008258e-05  3.9350504e-05  5.5774339e-05  1378.8382      344.70955      344.70955      5.13777e-05    1.6384e+08   
     83600   0.19968368    -21.23658       0.29952237    -20.937058      5.3867663e-06  1.4692888e-05  2.0245387e-05  1378.8382      344.70955      344.70955      1.3441681e-05  1.6384e+08   
     83700   0.20018359    -21.236816      0.30027223    -20.936543      3.6952164e-05  4.5526863e-05  3.7362325e-05  1378.8382      344.70955      344.70955      3.9947117e-05  1.6384e+08   
     83800   0.20014007    -21.236303      0.30020695    -20.936096      4.6850526e-05  2.1124568e-05  5.0833881e-05  1378.8382      344.70955      344.70955      3.9602992e-05  1.6384e+08   
     83900   0.2004894     -21.236837      0.30073094    -20.936107      1.2002027e-05  2.5414719e-05  7.8526301e-06  1378.8382      344.70955      344.70955      1.5089792e-05  1.6384e+08   
     84000   0.19997285    -21.237045      0.29995613    -20.937088      1.6256156e-05  3.3739203e-05  6.8425731e-05  1378.8382      344.70955      344.70955      3.9473696e-05  1.6384e+08   
     84100   0.19972675    -21.237193      0.29958698    -20.937606      6.6244556e-05  2.6972075e-05  7.8865729e-05  1378.8382      344.70955      344.70955      5.7360787e-05  1.6384e+08   
     84200   0.19959843    -21.235856      0.2993945     -20.936461      5.258026e-05   6.9266187e-05  2.960796e-05   1378.8382      344.70955      344.70955      5.0484803e-05  1.6384e+08   
     84300   0.20044183    -21.23511       0.30065959    -20.93445       2.7055766e-05  1.4878171e-05  7.2072393e-05  1378.8382      344.70955      344.70955      3.800211e-05   1.6384e+08   
     84400   0.20062983    -21.235791      0.30094159    -20.934849      7.1246686e-05  6.9122209e-05  3.9512435e-05  1378.8382      344.70955      344.70955      5.9960443e-05  1.6384e+08   
     84500   0.1999132     -21.23593       0.29986664    -20.936063      3.1263907e-05  5.7124718e-05  5.3877567e-05  1378.8382      344.70955      344.70955      4.7422064e-05  1.6384e+08   
     84600   0.19997098    -21.236088      0.29995331    -20.936135      7.0812968e-05  5.1497974e-05  6.5818458e-05  1378.8382      344.70955      344.70955      6.27098e-05    1.6384e+08   
     84700   0.2000012     -21.236077      0.29999865    -20.936078      3.2781493e-05  4.778087e-05   8.9045449e-05  1378.8382      344.70955      344.70955      5.6535937e-05  1.6384e+08   
     84800   0.19988713    -21.235749      0.29982754    -20.935922      5.9657095e-05  5.1056364e-05  7.0754618e-05  1378.8382      344.70955      344.70955      6.0489359e-05  1.6384e+08   
     84900   0.20061886    -21.236161      0.30092512    -20.935236      9.4113056e-05  3.497984e-05   5.630542e-05   1378.8382      344.70955      344.70955      6.1799439e-05  1.6384e+08   
     85000   0.20024583    -21.235595      0.30036559    -20.935229      5.1968338e-05  6.3791851e-05  6.6247889e-05  1378.8382      344.70955      344.70955      6.0669359e-05  1.6384e+08   
     85100   0.19959342    -21.235577      0.29938699    -20.93619       3.7414568e-05  3.8166217e-05  2.1305344e-05  1378.8382      344.70955      344.70955      3.2295377e-05  1.6384e+08   
     85200   0.1993246     -21.235376      0.29898376    -20.936392      4.0695709e-06  2.0851977e-05  5.2129177e-05  1378.8382      344.70955      344.70955      2.5683575e-05  1.6384e+08   
     85300   0.2001727     -21.23517       0.30025589    -20.934914      5.2521685e-05  4.7127918e-05  3.3284099e-05  1378.8382      344.70955      344.70955      4.4311234e-05  1.6384e+08   
     85400   0.20056074    -21.234323      0.30083795    -20.933485      2.5204397e-05  8.2726561e-05  7.3288384e-05  1378.8382      344.70955      344.70955      6.0406447e-05  1.6384e+08   
     85500   0.20004042    -21.234711      0.30005748    -20.934653      3.6053255e-05  5.8038499e-05  3.1030502e-05  1378.8382      344.70955      344.70955      4.1707419e-05  1.6384e+08   
     85600   0.19969481    -21.234751      0.29953907    -20.935212      2.0541909e-05  5.2718201e-05  6.4335823e-05  1378.8382      344.70955      344.70955      4.5865311e-05  1.6384e+08   
     85700   0.20022765    -21.235485      0.30033832    -20.935147      2.9309755e-05  1.0938673e-05  4.9277106e-05  1378.8382      344.70955      344.70955      2.9841845e-05  1.6384e+08   
     85800   0.20016469    -21.235684      0.30024388    -20.93544       6.6737746e-06  5.6640886e-05  5.6346131e-06  1378.8382      344.70955      344.70955      2.2983091e-05  1.6384e+08   
     85900   0.19966314    -21.235465      0.29949157    -20.935974      5.4192908e-05  7.1521318e-05  8.8494523e-05  1378.8382      344.70955      344.70955      7.1402916e-05  1.6384e+08   
     86000   0.19980467    -21.235708      0.29970385    -20.936004      5.755532e-05   2.9400729e-05  7.2215173e-05  1378.8382      344.70955      344.70955      5.3057074e-05  1.6384e+08   
     86100   0.20023982    -21.235095      0.30035657    -20.934738      4.4416474e-05  2.6311028e-05  5.1679647e-05  1378.8382      344.70955      344.70955      4.0802383e-05  1.6384e+08   
     86200   0.20043572    -21.234193      0.30065042    -20.933542      2.7317451e-05  3.7271441e-05  9.3640952e-06  1378.8382      344.70955      344.70955      2.4650996e-05  1.6384e+08   
     86300   0.19999543    -21.234418      0.29999       -20.934428      5.4935725e-05  3.3471651e-05  8.1854215e-05  1378.8382      344.70955      344.70955      5.6753864e-05  1.6384e+08   
     86400   0.19912828    -21.234486      0.29868929    -20.935797      5.8741375e-05  5.3221878e-05  2.2202605e-05  1378.8382      344.70955      344.70955      4.4721953e-05  1.6384e+08   
     86500   0.19966276    -21.234798      0.29949099    -20.935307      6.840506e-05   7.3919167e-05  6.783488e-05   1378.8382      344.70955      344.70955      7.0053035e-05  1.6384e+08   
     86600   0.20018645    -21.234959      0.30027652    -20.934683      6.7959794e-05  3.0566149e-05  4.3002861e-05  1378.8382      344.70955      344.70955      4.7176268e-05  1.6384e+08   
     86700   0.20029681    -21.234249      0.30044206    -20.933807      2.4382576e-05  5.7360421e-05  6.4020961e-05  1378.8382      344.70955      344.70955      4.8587986e-05  1.6384e+08   
     86800   0.20067716    -21.234593      0.30101258    -20.93358       2.4238391e-05  1.906601e-05   2.1031043e-05  1378.8382      344.70955      344.70955      2.1445148e-05  1.6384e+08   
     86900   0.20005936    -21.235312      0.30008588    -20.935226      5.2132501e-05  4.6577038e-05  4.2580008e-05  1378.8382      344.70955      344.70955      4.7096516e-05  1.6384e+08   
     87000   0.1990287     -21.234325      0.29853992    -20.935785      4.6155801e-05  4.6466887e-05  4.4727132e-05  1378.8382      344.70955      344.70955      4.5783273e-05  1.6384e+08   
     87100   0.20066516    -21.235494      0.30099458    -20.9345        4.797382e-07   2.7777674e-05  2.1548283e-05  1378.8382      344.70955      344.70955      1.6601898e-05  1.6384e+08   
     87200   0.20094808    -21.234577      0.30141895    -20.933158      9.7521711e-05  8.6415801e-05  3.5974121e-05  1378.8382      344.70955      344.70955      7.3303878e-05  1.6384e+08   
     87300   0.20068039    -21.234945      0.30101742    -20.933928      3.2404023e-05  6.3443315e-05  5.378651e-05   1378.8382      344.70955      344.70955      4.9877949e-05  1.6384e+08   
     87400   0.20010546    -21.234886      0.30015503    -20.934731      2.2178269e-05  3.8053271e-05  3.1764134e-05  1378.8382      344.70955      344.70955      3.0665225e-05  1.6384e+08   
     87500   0.19985136    -21.234084      0.2997739     -20.93431       6.0048732e-05  2.5733555e-05  5.2087298e-05  1378.8382      344.70955      344.70955      4.5956528e-05  1.6384e+08   
     87600   0.20031532    -21.234341      0.30046983    -20.933871      4.2110961e-05  2.7233018e-05  1.7357859e-05  1378.8382      344.70955      344.70955      2.8900613e-05  1.6384e+08   
     87700   0.19999442    -21.233918      0.29998848    -20.933929      5.4590632e-05  6.0156569e-05  1.1301535e-05  1378.8382      344.70955      344.70955      4.2016245e-05  1.6384e+08   
     87800   0.19916403    -21.233728      0.2987429     -20.934985      4.9517645e-05  1.4362357e-05  3.6110562e-05  1378.8382      344.70955      344.70955      3.3330188e-05  1.6384e+08   
     87900   0.19901576    -21.233897      0.29852051    -20.935377      6.0273452e-05  5.0131002e-05  6.4749391e-05  1378.8382      344.70955      344.70955      5.8384615e-05  1.6384e+08   
     88000   0.20033925    -21.233923      0.30050572    -20.933417     -3.2300026e-06  4.4548795e-05  3.0350032e-05  1378.8382      344.70955      344.70955      2.3889608e-05  1.6384e+08   
     88100   0.20094808    -21.233851      0.30141896    -20.932432      4.3910569e-05  2.5955466e-05  2.7093141e-05  1378.8382      344.70955      344.70955      3.2319725e-05  1.6384e+08   
     88200   0.19972429    -21.232932      0.29958328    -20.933349      3.720124e-05   2.9424305e-05  4.9009598e-05  1378.8382      344.70955      344.70955      3.8545048e-05  1.6384e+08   
     88300   0.20013588    -21.234004      0.30020067    -20.933803      7.0066791e-05  5.7939216e-05  6.7132024e-05  1378.8382      344.70955      344.70955      6.504601e-05   1.6384e+08   
     88400   0.20000169    -21.233883      0.29999938    -20.933883      8.9506696e-05  9.0203565e-05  9.4711156e-05  1378.8382      344.70955      344.70955      9.1473806e-05  1.6384e+08   
     88500   0.19939883    -21.233072      0.29909511    -20.933977      6.13728e-05    6.9668274e-05  6.5795443e-05  1378.8382      344.70955      344.70955      6.5612173e-05  1.6384e+08   
     88600   0.19949663    -21.234199      0.2992418     -20.934957      9.9329441e-06  2.6174462e-05  1.6835679e-05  1378.8382      344.70955      344.70955      1.7647695e-05  1.6384e+08   
     88700   0.19935685    -21.233609      0.29903214    -20.934577      5.1312799e-05  6.8138253e-05  2.8167689e-05  1378.8382      344.70955      344.70955      4.9206247e-05  1.6384e+08   
     88800   0.20016573    -21.233018      0.30024543    -20.932773      3.9566576e-05  1.8378397e-05  4.4424016e-05  1378.8382      344.70955      344.70955      3.4122996e-05  1.6384e+08   
     88900   0.20052929    -21.232924      0.30079077    -20.932133      2.1806505e-05  3.1885433e-05  3.7029112e-05  1378.8382      344.70955      344.70955      3.024035e-05   1.6384e+08   
     89000   0.2003822     -21.233713      0.30057014    -20.933143      4.157819e-06   4.6038985e-05  4.6502201e-05  1378.8382      344.70955      344.70955      3.2233002e-05  1.6384e+08   
     89100   0.19980215    -21.234184      0.29970008    -20.934484      1.6194279e-05  2.3718057e-05  5.3331947e-05  1378.8382      344.70955      344.70955      3.1081428e-05  1.6384e+08   
     89200   0.19947832    -21.233277      0.29921434    -20.934063      4.116746e-05   6.2426144e-05  7.1014719e-05  1378.8382      344.70955      344.70955      5.8202774e-05  1.6384e+08   
     89300   0.20012036    -21.233114      0.30017738    -20.932936      3.8734572e-05  5.2990641e-05  6.2294904e-05  1378.8382      344.70955      344.70955      5.1340039e-05  1.6384e+08   
     89400   0.20066076    -21.233153      0.30098797    -20.932165      6.4041608e-05  7.8154173e-05  6.9198416e-05  1378.8382      344.70955      344.70955      7.0464733e-05  1.6384e+08   
     89500   0.20031878    -21.233393      0.30047501    -20.932918      5.5254144e-05  5.8325005e-05  7.0046635e-05  1378.8382      344.70955      344.70955      6.1208595e-05  1.6384e+08   
     89600   0.198906      -21.232709      0.29835586    -20.934353      3.5572977e-05  4.9901584e-05  2.5492937e-05  1378.8382      344.70955      344.70955      3.6989166e-05  1.6384e+08   
     89700   0.19933567    -21.232441      0.29900036    -20.933441      2.7887324e-05  3.6096417e-05  3.0973742e-05  1378.8382      344.70955      344.70955      3.1652494e-05  1.6384e+08   
     89800   0.19998489    -21.232458      0.29997418    -20.932484      4.0714708e-05  5.2161206e-06  2.4309201e-05  1378.8382      344.70955      344.70955      2.3413343e-05  1.6384e+08   
     89900   0.20019576    -21.232697      0.30029048    -20.932407      5.4756898e-05  7.0384052e-05  4.2254321e-05  1378.8382      344.70955      344.70955      5.5798424e-05  1.6384e+08   
     90000   0.19992691    -21.232598      0.29988722    -20.932711      9.7213812e-05  5.7111256e-05  5.7449025e-05  1378.8382      344.70955      344.70955      7.0591364e-05  1.6384e+08   
     90100   0.19954105    -21.23263       0.29930843    -20.933322      7.0288989e-05  7.3051041e-05  5.495395e-05   1378.8382      344.70955      344.70955      6.6097993e-05  1.6384e+08   
     90200   0.19895306    -21.233164      0.29842646    -20.934738      6.0632821e-05  7.1607843e-05  7.1367228e-05  1378.8382      344.70955      344.70955      6.7869297e-05  1.6384e+08   
     90300   0.19909883    -21.232307      0.2986451     -20.933662      7.5127127e-05  6.6452085e-05  0.00010947301  1378.8382      344.70955      344.70955      8.3684075e-05  1.6384e+08   
     90400   0.20055391    -21.23262       0.3008277     -20.931793      4.4374194e-05  1.6364934e-05  6.7953391e-05  1378.8382      344.70955      344.70955      4.2897506e-05  1.6384e+08   
     90500   0.19998796    -21.231812      0.29997879    -20.931834      5.1248515e-05  3.5947385e-05  4.5955101e-05  1378.8382      344.70955      344.70955      4.4383667e-05  1.6384e+08   
     90600   0.19943744    -21.231785      0.29915302    -20.932632      2.0830026e-05  3.2916104e-05  3.6160349e-05  1378.8382      344.70955      344.70955      2.9968826e-05  1.6384e+08   
     90700   0.19942986    -21.232005      0.29914164    -20.932863      3.0291014e-05  6.8432124e-05  5.9158254e-05  1378.8382      344.70955      344.70955      5.2627131e-05  1.6384e+08   
     90800   0.19975517    -21.232119      0.29962961    -20.93249       2.8860856e-05  4.1641771e-05  3.3892808e-05  1378.8382      344.70955      344.70955      3.4798478e-05  1.6384e+08   
     90900   0.19997027    -21.231191      0.29995225    -20.931238      5.3494373e-05  6.8624653e-05  4.6137434e-05  1378.8382      344.70955      344.70955      5.6085486e-05  1.6384e+08   
     91000   0.2009995     -21.232084      0.30149608    -20.930588      3.8574286e-05  3.3565804e-05  6.9342003e-05  1378.8382      344.70955      344.70955      4.7160698e-05  1.6384e+08   
     91100   0.19991848    -21.232016      0.29987457    -20.932141      4.1612794e-05  3.3427012e-05  1.1249977e-05  1378.8382      344.70955      344.70955      2.8763261e-05  1.6384e+08   
     91200   0.20028009    -21.232818      0.30041698    -20.932401      3.2219893e-05  4.7504775e-05  4.3500519e-05  1378.8382      344.70955      344.70955      4.1075062e-05  1.6384e+08   
     91300   0.2001655     -21.232199      0.3002451     -20.931954      5.9295206e-05  4.4700077e-05  3.9127928e-05  1378.8382      344.70955      344.70955      4.7707737e-05  1.6384e+08   
     91400   0.20016921    -21.231497      0.30025066    -20.931246      3.2121919e-05  4.6759557e-05  4.6999572e-05  1378.8382      344.70955      344.70955      4.1960349e-05  1.6384e+08   
     91500   0.20120103    -21.232044      0.30179838    -20.930246      3.1715455e-05  6.4517199e-05  4.0754099e-05  1378.8382      344.70955      344.70955      4.5662251e-05  1.6384e+08   
     91600   0.20015637    -21.231466      0.30023139    -20.931234      6.1346663e-05  3.2401541e-05  4.9318367e-05  1378.8382      344.70955      344.70955      4.7688857e-05  1.6384e+08   
     91700   0.19950313    -21.231563      0.29925155    -20.932312      5.0009952e-05 -4.6135636e-06  1.631752e-05   1378.8382      344.70955      344.70955      2.0571303e-05  1.6384e+08   
     91800   0.19954442    -21.231325      0.29931348    -20.932011      1.7861889e-05  5.7294312e-05  4.9765334e-05  1378.8382      344.70955      344.70955      4.1640512e-05  1.6384e+08   
     91900   0.19993973    -21.230598      0.29990644    -20.930692      1.4684201e-05  1.2932339e-05  4.9122607e-05  1378.8382      344.70955      344.70955      2.5579716e-05  1.6384e+08   
     92000   0.20093083    -21.230479      0.30139308    -20.929086      5.2045407e-05  4.8842865e-05  7.2590501e-05  1378.8382      344.70955      344.70955      5.7826258e-05  1.6384e+08   
     92100   0.200209      -21.231118      0.30031034    -20.930808      6.2508752e-05  5.7144243e-05  7.9884181e-05  1378.8382      344.70955      344.70955      6.6512392e-05  1.6384e+08   
     92200   0.19986296    -21.231359      0.29979129    -20.931568      4.4118103e-05  7.9016099e-05  0.00010281848  1378.8382      344.70955      344.70955      7.5317562e-05  1.6384e+08   
     92300   0.20004978    -21.231537      0.30007152    -20.931465      2.9457394e-05  7.1424549e-05  5.5171885e-05  1378.8382      344.70955      344.70955      5.2017942e-05  1.6384e+08   
     92400   0.20013442    -21.230656      0.30019848    -20.930457      4.5387387e-05  5.238912e-05   4.881598e-05   1378.8382      344.70955      344.70955      4.8864162e-05  1.6384e+08   
     92500   0.20056371    -21.230977      0.3008424     -20.930134      2.8646089e-05  4.0920055e-05  5.1525558e-05  1378.8382      344.70955      344.70955      4.0363901e-05  1.6384e+08   
     92600   0.19958569    -21.230967      0.29937539    -20.931591      3.7313833e-05  5.1988982e-05  8.7141966e-05  1378.8382      344.70955      344.70955      5.8814927e-05  1.6384e+08   
     92700   0.19925353    -21.230951      0.29887716    -20.932074      7.4952976e-05  3.8931503e-05  6.331858e-05   1378.8382      344.70955      344.70955      5.9067686e-05  1.6384e+08   
     92800   0.20004533    -21.230933      0.30006484    -20.930868      9.8715272e-05  6.0919417e-05  7.0267809e-05  1378.8382      344.70955      344.70955      7.6634166e-05  1.6384e+08   
     92900   0.20035862    -21.230224      0.30053478    -20.929689      8.6654636e-05  5.0416902e-05  5.3107619e-05  1378.8382      344.70955      344.70955      6.3393052e-05  1.6384e+08   
     93000   0.20051934    -21.230857      0.30077584    -20.930081      1.6116425e-05  3.1390872e-05  4.9982255e-05  1378.8382      344.70955      344.70955      3.2496517e-05  1.6384e+08   
     93100   0.20019294    -21.230807      0.30028626    -20.930521      4.7189861e-05  2.4497064e-05 -1.262932e-05   1378.8382      344.70955      344.70955      1.9685868e-05  1.6384e+08   
     93200   0.19970823    -21.230147      0.2995592     -20.930587      3.832782e-05   4.9863241e-05 -6.1885233e-06  1378.8382      344.70955      344.70955      2.7334179e-05  1.6384e+08   
     93300   0.20027583    -21.230932      0.30041059    -20.930522      2.871435e-05   3.0646732e-05  6.7015101e-05  1378.8382      344.70955      344.70955      4.2125394e-05  1.6384e+08   
     93400   0.20000174    -21.230393      0.29999945    -20.930394      3.9435989e-05  5.2792118e-05  4.2764628e-05  1378.8382      344.70955      344.70955      4.4997579e-05  1.6384e+08   
     93500   0.19969828    -21.230304      0.29954427    -20.930759      8.1547666e-05  6.1497724e-05  5.6492337e-05  1378.8382      344.70955      344.70955      6.6512576e-05  1.6384e+08   
     93600   0.19925645    -21.229809      0.29888153    -20.930928      4.2714242e-05  6.3432394e-05  8.2788529e-05  1378.8382      344.70955      344.70955      6.2978388e-05  1.6384e+08   
     93700   0.20024154    -21.230023      0.30035915    -20.929664      4.0706961e-05  5.709594e-05   2.6999176e-05  1378.8382      344.70955      344.70955      4.1600692e-05  1.6384e+08   
     93800   0.20080665    -21.230246      0.3012068     -20.929039      1.6488354e-05  2.5078417e-05  3.1988483e-05  1378.8382      344.70955      344.70955      2.4518418e-05  1.6384e+08   
     93900   0.19996532    -21.230563      0.29994483    -20.930619     -4.5741207e-06  3.9805639e-05 -1.4938213e-05  1378.8382      344.70955      344.70955      6.7644352e-06  1.6384e+08   
     94000   0.19924924    -21.229768      0.29887073    -20.930897      3.0958036e-05  6.321901e-05   7.8788214e-05  1378.8382      344.70955      344.70955      5.7655086e-05  1.6384e+08   
     94100   0.20056412    -21.23097       0.30084301    -20.930127      4.8748124e-05  5.2882631e-05  9.5079072e-05  1378.8382      344.70955      344.70955      6.5569942e-05  1.6384e+08   
     94200   0.19982201    -21.229345      0.29972987    -20.929616      0.00012075056  9.2899677e-05  7.4858998e-05  1378.8382      344.70955      344.70955      9.6169746e-05  1.6384e+08   
     94300   0.2002087     -21.229768      0.30030989    -20.929458      7.1786484e-05  6.0931086e-05  0.00010156153  1378.8382      344.70955      344.70955      7.8093035e-05  1.6384e+08   
     94400   0.20028792    -21.229844      0.30042873    -20.929415      1.5956338e-05  5.0729478e-05  3.5641632e-05  1378.8382      344.70955      344.70955      3.4109149e-05  1.6384e+08   
     94500   0.20031783    -21.229867      0.30047358    -20.929394      2.7812347e-05  3.5692525e-05  6.0264024e-06  1378.8382      344.70955      344.70955      2.3177092e-05  1.6384e+08   
     94600   0.19976804    -21.229382      0.29964891    -20.929733      2.6712902e-05  1.9930428e-06  3.9556598e-05  1378.8382      344.70955      344.70955      2.2754181e-05  1.6384e+08   
     94700   0.19953351    -21.22926       0.29929711    -20.929963      6.2798706e-05  6.6217783e-05  5.7183399e-05  1378.8382      344.70955      344.70955      6.2066629e-05  1.6384e+08   
     94800   0.19925068    -21.229851      0.29887288    -20.930979      4.0008695e-05  7.2296525e-05  6.9999926e-05  1378.8382      344.70955      344.70955      6.0768382e-05  1.6384e+08   
     94900   0.19936462    -21.229738      0.29904379    -20.930694      5.5912728e-05  3.9116645e-05  5.5019816e-05  1378.8382      344.70955      344.70955      5.0016396e-05  1.6384e+08   
     95000   0.19988341    -21.228642      0.29982197    -20.92882       5.2717319e-05  2.4389564e-05  5.2815251e-05  1378.8382      344.70955      344.70955      4.3307378e-05  1.6384e+08   
     95100   0.20066928    -21.228965      0.30100076    -20.927964      3.6510754e-05  1.5960694e-05  3.235964e-05   1378.8382      344.70955      344.70955      2.8277029e-05  1.6384e+08   
     95200   0.1995279     -21.228359      0.29928871    -20.92907       6.8703124e-05  5.1370818e-05  4.2180738e-05  1378.8382      344.70955      344.70955      5.4084893e-05  1.6384e+08   
     95300   0.20038705    -21.230138      0.30057741    -20.929561      6.2054689e-05  5.712225e-05   5.7185567e-05  1378.8382      344.70955      344.70955      5.8787502e-05  1.6384e+08   
     95400   0.19926769    -21.228137      0.29889839    -20.929239      5.6904218e-05  4.880657e-05   5.3876299e-05  1378.8382      344.70955      344.70955      5.3195696e-05  1.6384e+08   
     95500   0.20043682    -21.228991      0.30065207    -20.928339      9.6452627e-05  4.9833353e-05  4.841041e-05   1378.8382      344.70955      344.70955      6.4898797e-05  1.6384e+08   
     95600   0.20010118    -21.228734      0.30014862    -20.928585      7.4719101e-05  7.2898293e-05  7.7082618e-05  1378.8382      344.70955      344.70955      7.4900004e-05  1.6384e+08   
     95700   0.19887035    -21.228997      0.29830239    -20.930694      5.6266698e-05  5.5638992e-05  1.2417218e-05  1378.8382      344.70955      344.70955      4.1440969e-05  1.6384e+08   
     95800   0.19949767    -21.229126      0.29924335    -20.929882      6.2204084e-05  6.2083874e-05  6.1193157e-05  1378.8382      344.70955      344.70955      6.1827038e-05  1.6384e+08   
     95900   0.19997581    -21.228436      0.29996056    -20.928476      5.9552181e-05  5.9141824e-05  5.1791784e-05  1378.8382      344.70955      344.70955      5.6828597e-05  1.6384e+08   
     96000   0.20091398    -21.229171      0.30136781    -20.927803      5.4880259e-05  4.2063917e-05  4.5419449e-05  1378.8382      344.70955      344.70955      4.7454541e-05  1.6384e+08   
     96100   0.20027705    -21.228835      0.30041242    -20.928423      1.3210406e-06  2.8593593e-05  4.8571995e-05  1378.8382      344.70955      344.70955      2.616221e-05   1.6384e+08   
     96200   0.19950987    -21.229287      0.29926166    -20.930025      5.9783616e-05  3.3520219e-05  3.224843e-05   1378.8382      344.70955      344.70955      4.1850755e-05  1.6384e+08   
     96300   0.19923227    -21.228611      0.29884527    -20.929766      4.1843516e-05  3.384922e-05   4.5890038e-05  1378.8382      344.70955      344.70955      4.0527592e-05  1.6384e+08   
     96400   0.19971398    -21.22848       0.29956783    -20.928912      6.8198104e-05  5.3774699e-05  5.1297691e-05  1378.8382      344.70955      344.70955      5.7756831e-05  1.6384e+08   
     96500   0.20076951    -21.228835      0.3011511     -20.927684      6.8199262e-05  7.1867284e-05  7.3030461e-05  1378.8382      344.70955      344.70955      7.1032336e-05  1.6384e+08   
     96600   0.20034814    -21.227985      0.30051905    -20.927466      3.5772182e-05  2.524709e-05   1.2012649e-05  1378.8382      344.70955      344.70955      2.4343974e-05  1.6384e+08   
     96700   0.1998072     -21.228447      0.29970765    -20.928739      3.6414673e-07  8.4622848e-06  3.1373817e-05  1378.8382      344.70955      344.70955      1.3400083e-05  1.6384e+08   
     96800   0.19949544    -21.22875       0.29924002    -20.92951       7.0696026e-05  4.7763853e-05  4.2990072e-05  1378.8382      344.70955      344.70955      5.381665e-05   1.6384e+08   
     96900   0.2002585     -21.228386      0.30038459    -20.928002      3.1902848e-05  6.7807547e-05  4.93875e-05    1378.8382      344.70955      344.70955      4.9699298e-05  1.6384e+08   
     97000   0.20097471    -21.227342      0.3014589     -20.925883      3.6704338e-05  6.2810793e-05  6.4071821e-05  1378.8382      344.70955      344.70955      5.4528984e-05  1.6384e+08   
     97100   0.2007325     -21.227849      0.30109558    -20.926754      4.6747035e-05  2.4522567e-05  3.1899387e-05  1378.8382      344.70955      344.70955      3.4389663e-05  1.6384e+08   
     97200   0.19986581    -21.227831      0.29979556    -20.928035      2.6984789e-05  3.1554701e-05  4.4740442e-05  1378.8382      344.70955      344.70955      3.4426644e-05  1.6384e+08   
     97300   0.19959357    -21.227748      0.2993872     -20.928361      7.4192339e-05  5.0242864e-05  5.0223784e-05  1378.8382      344.70955      344.70955      5.8219662e-05  1.6384e+08   
     97400   0.19945854    -21.227014      0.29918466    -20.92783       5.3765752e-05  4.3478213e-05  4.762263e-05   1378.8382      344.70955      344.70955      4.8288865e-05  1.6384e+08   
     97500   0.20110107    -21.227593      0.30164844    -20.925945      1.6884634e-05  3.1218538e-05  4.7903927e-05  1378.8382      344.70955      344.70955      3.2002366e-05  1.6384e+08   
     97600   0.20119628    -21.227319      0.30179125    -20.925528      3.7909358e-05  2.4350446e-05  1.9900297e-05  1378.8382      344.70955      344.70955      2.73867e-05    1.6384e+08   
     97700   0.19978339    -21.22702       0.29967193    -20.927348      3.4677315e-05  6.5658465e-05  1.1218409e-05  1378.8382      344.70955      344.70955      3.718473e-05   1.6384e+08   
     97800   0.1995679     -21.226884      0.2993487     -20.927536      4.1110407e-05  4.2600415e-05  4.0220938e-05  1378.8382      344.70955      344.70955      4.1310587e-05  1.6384e+08   
     97900   0.19952669    -21.226429      0.29928689    -20.927142      5.9505641e-05  8.6154722e-05  8.5735276e-05  1378.8382      344.70955      344.70955      7.713188e-05   1.6384e+08   
     98000   0.199184      -21.225848      0.29877286    -20.927075      5.8459176e-05  4.3582113e-05  7.4739226e-05  1378.8382      344.70955      344.70955      5.8926838e-05  1.6384e+08   
     98100   0.1998543     -21.227735      0.2997783     -20.927957      3.1205835e-05  7.7460475e-06  5.2226862e-05  1378.8382      344.70955      344.70955      3.0392915e-05  1.6384e+08   
     98200   0.19987758    -21.228497      0.29981322    -20.928683      1.1758131e-05  4.454007e-05   3.7042929e-05  1378.8382      344.70955      344.70955      3.111371e-05   1.6384e+08   
     98300   0.19937532    -21.227319      0.29905984    -20.928259      1.0604165e-05 -8.7546035e-06  5.1045245e-06  1378.8382      344.70955      344.70955      2.3180287e-06  1.6384e+08   
     98400   0.20056676    -21.226876      0.30084698    -20.926029      2.1264098e-05  3.0709738e-05  8.8901325e-06  1378.8382      344.70955      344.70955      2.028799e-05   1.6384e+08   
     98500   0.20008099    -21.226162      0.30011834    -20.926043      6.2420099e-05  4.6861175e-05  5.9539604e-05  1378.8382      344.70955      344.70955      5.6273626e-05  1.6384e+08   
     98600   0.20001876    -21.227316      0.30002499    -20.927291      2.2240888e-05  4.1266271e-05  3.5683197e-05  1378.8382      344.70955      344.70955      3.3063452e-05  1.6384e+08   
     98700   0.19983915    -21.227292      0.29975558    -20.927537      6.0115388e-05  6.9098123e-05  3.4725101e-05  1378.8382      344.70955      344.70955      5.4646204e-05  1.6384e+08   
     98800   0.19992049    -21.22693       0.29987758    -20.927052      8.360912e-05   5.5595548e-05  9.0730735e-05  1378.8382      344.70955      344.70955      7.6645134e-05  1.6384e+08   
     98900   0.20049418    -21.226893      0.30073812    -20.926155      9.0674398e-05  9.6574447e-05  7.2555298e-05  1378.8382      344.70955      344.70955      8.6601381e-05  1.6384e+08   
     99000   0.20049058    -21.226778      0.30073271    -20.926046      6.4287786e-05  6.6401929e-05  8.871526e-05   1378.8382      344.70955      344.70955      7.3134992e-05  1.6384e+08   
     99100   0.19940656    -21.227616      0.29910669    -20.928509      6.6316318e-05  5.2251122e-05  3.1228856e-05  1378.8382      344.70955      344.70955      4.9932099e-05  1.6384e+08   
     99200   0.19950671    -21.227558      0.29925692    -20.928301      3.43518e-05    6.9968016e-05  7.3832318e-05  1378.8382      344.70955      344.70955      5.9384044e-05  1.6384e+08   
     99300   0.19991771    -21.226193      0.29987341    -20.92632       6.4442536e-05  4.6340449e-05  5.2612036e-05  1378.8382      344.70955      344.70955      5.4465007e-05  1.6384e+08   
     99400   0.20047953    -21.226287      0.30071614    -20.925571      7.1437787e-05  6.3686374e-05  3.797656e-05   1378.8382      344.70955      344.70955      5.770024e-05   1.6384e+08   
     99500   0.20006032    -21.226314      0.30008732    -20.926227      7.1654549e-05  9.2401226e-05  3.2924623e-05  1378.8382      344.70955      344.70955      6.5660133e-05  1.6384e+08   
     99600   0.19936766    -21.226263      0.29904835    -20.927214      3.4985419e-05  5.0877901e-05  6.1199557e-05  1378.8382      344.70955      344.70955      4.9020959e-05  1.6384e+08   
     99700   0.19963929    -21.22654       0.29945579    -20.927085      5.6102259e-05  5.2271701e-05  8.8760255e-06  1378.8382      344.70955      344.70955      3.9083329e-05  1.6384e+08   
     99800   0.20058875    -21.225837      0.30087997    -20.924957      4.6890417e-05  4.8695458e-05  5.2227605e-05  1378.8382      344.70955      344.70955      4.927116e-05   1.6384e+08   
     99900   0.20138153    -21.226299      0.30206913    -20.924229      4.6494571e-05  4.1879751e-05  1.7606005e-05  1378.8382      344.70955      344.70955      3.5326775e-05  1.6384e+08   
    100000   0.2005733     -21.226537      0.30085679    -20.92568       5.415173e-05   1.1236834e-05  5.1276893e-05  1378.8382      344.70955      344.70955      3.8888486e-05  1.6384e+08   
Loop time of 696.776 on 1 procs for 70000 steps with 95168 atoms

Performance: 8679.976 tau/day, 100.463 timesteps/s, 9.561 Matom-step/s
100.0% CPU use with 1 MPI tasks x 1 OpenMP threads

MPI task timing breakdown:
Section |  min time  |  avg time  |  max time  |%varavg| %total
---------------------------------------------------------------
Pair    | 518.78     | 518.78     | 518.78     |   0.0 | 74.45
Neigh   | 21.336     | 21.336     | 21.336     |   0.0 |  3.06
Comm    | 7.0024     | 7.0024     | 7.0024     |   0.0 |  1.00
Output  | 0.70325    | 0.70325    | 0.70325    |   0.0 |  0.10
Modify  | 115.26     | 115.26     | 115.26     |   0.0 | 16.54
Other   |            | 33.69      |            |       |  4.84

Nlocal:          95168 ave       95168 max       95168 min
Histogram: 1 0 0 0 0 0 0 0 0 0
Nghost:           2134 ave        2134 max        2134 min
Histogram: 1 0 0 0 0 0 0 0 0 0
Neighs:         642171 ave      642171 max      642171 min
Histogram: 1 0 0 0 0 0 0 0 0 0

Total # of neighbors = 642171
Ave neighs/atom = 6.7477619
Neighbor list builds = 389
Dangerous builds = 0

#############returning to original density 1000 per 1unit, the scaling factor is independent of replication ################################
variable        newsizerx equal lx/(320^(1./3.))
variable        newsizery equal ly/(320^(1./3.))
variable        newsizerz equal lz/(320^(1./3.))

fix             2 all deform 1 x final 0 ${newsizerx} y final 0 ${newsizery} z final 0 ${newsizerz} units box
fix             2 all deform 1 x final 0 201.58736798318 y final 0 ${newsizery} z final 0 ${newsizerz} units box
fix             2 all deform 1 x final 0 201.58736798318 y final 0 50.396841995795 z final 0 ${newsizerz} units box
fix             2 all deform 1 x final 0 201.58736798318 y final 0 50.396841995795 z final 0 50.396841995795 units box
run             50000#test!0
Generated 0 of 36 mixed pair_coeff terms from geometric mixing rule
Per MPI rank memory allocation (min/avg/max) = 193.4 | 193.4 | 193.4 Mbytes
   Step          Temp          PotEng         KinEng         TotEng          Pxx            Pyy            Pzz             Lx             Ly             Lz           Press          Volume    
    100000   0.2005733     -21.226537      0.30085679    -20.92568       5.415173e-05   1.1236834e-05  5.1276893e-05  1378.8382      344.70955      344.70955      3.8888486e-05  1.6384e+08   
    100100   0.19999518    -21.227116      0.29998961    -20.927127      7.2813771e-05  6.4197136e-05  7.1744465e-05  1376.4837      344.12092      344.12092      6.9585124e-05  1.6300211e+08
    100200   0.19915449    -21.226201      0.29872859    -20.927473      3.4607106e-05  2.8758644e-05  5.2059774e-05  1374.1292      343.5323       343.5323       3.8475175e-05  1.6216709e+08
    100300   0.20019832    -21.226374      0.30029432    -20.92608       5.0852177e-05  7.5251691e-05  7.2444477e-05  1371.7747      342.94367      342.94367      6.6182782e-05  1.6133492e+08
    100400   0.20046842    -21.226538      0.30069947    -20.925838      8.9810273e-05  8.6119101e-05  7.032657e-05   1369.4202      342.35505      342.35505      8.2085315e-05  1.605056e+08 
    100500   0.20054157    -21.227292      0.3008092     -20.926483      7.3533849e-05  2.8714659e-05  5.6808568e-05  1367.0657      341.76642      341.76642      5.3019025e-05  1.5967914e+08
    100600   0.19955266    -21.226362      0.29932584    -20.927036      7.4034054e-05  7.8187664e-05  6.1566215e-05  1364.7112      341.1778       341.1778       7.1262644e-05  1.5885551e+08
    100700   0.19970894    -21.225951      0.29956026    -20.926391      8.8618067e-05  3.5952592e-05  5.7579297e-05  1362.3567      340.58917      340.58917      6.0716652e-05  1.5803472e+08
    100800   0.20047134    -21.225924      0.30070385    -20.925221      8.0952984e-05  4.64032e-05    4.0304363e-05  1360.0022      340.00055      340.00055      5.5886849e-05  1.5721676e+08
    100900   0.20058023    -21.226916      0.30086718    -20.926049      7.6853301e-05  7.2437523e-05  5.4022332e-05  1357.6477      339.41192      339.41192      6.7771052e-05  1.5640163e+08
    101000   0.19927447    -21.226784      0.29890856    -20.927876      7.2014045e-05  5.5511977e-05  4.5409476e-05  1355.2932      338.8233       338.8233       5.7645166e-05  1.5558932e+08
    101100   0.19971367    -21.227531      0.29956736    -20.927963      5.4529686e-05  3.6664649e-05  3.7780859e-05  1352.9387      338.23467      338.23467      4.2991731e-05  1.5477983e+08
    101200   0.19961538    -21.226913      0.29941993    -20.927493      5.1877232e-05  2.422782e-05   3.3466462e-05  1350.5842      337.64605      337.64605      3.6523838e-05  1.5397315e+08
    101300   0.20019979    -21.227324      0.30029652    -20.927027      5.174046e-05   2.1625465e-05  4.3323473e-05  1348.2297      337.05742      337.05742      3.8896466e-05  1.5316928e+08
    101400   0.19988852    -21.226994      0.29982963    -20.927164      4.3725195e-05  3.57152e-05    1.5903706e-05  1345.8752      336.46879      336.46879      3.1781367e-05  1.5236821e+08
    101500   0.2003813     -21.228077      0.30056879    -20.927508      3.2994787e-05  2.4277887e-05  3.2104764e-05  1343.5207      335.88017      335.88017      2.979248e-05   1.5156994e+08
    101600   0.19959075    -21.227729      0.29938299    -20.928346      5.3000267e-05  1.3658959e-05  3.7460001e-05  1341.1662      335.29154      335.29154      3.4706409e-05  1.5077446e+08
    101700   0.19934993    -21.227533      0.29902175    -20.928512      6.4478271e-05  5.3084029e-05  5.334445e-05   1338.8117      334.70292      334.70292      5.6968917e-05  1.4998177e+08
    101800   0.20031606    -21.227792      0.30047094    -20.927321      6.295477e-05   7.9147002e-05  6.5853757e-05  1336.4572      334.11429      334.11429      6.931851e-05   1.4919187e+08
    101900   0.20076349    -21.228319      0.30114207    -20.927177      6.316465e-05   4.5320819e-05  7.6411424e-05  1334.1027      333.52567      333.52567      6.1632297e-05  1.4840474e+08
    102000   0.20006761    -21.228295      0.30009827    -20.928196      8.8242754e-05  7.0700477e-05  7.1936324e-05  1331.7482      332.93704      332.93704      7.6959852e-05  1.4762039e+08
    102100   0.19912544    -21.228483      0.29868502    -20.929798      6.1643678e-05  3.3323638e-05  4.3016708e-05  1329.3937      332.34842      332.34842      4.5994675e-05  1.468388e+08 
    102200   0.19955624    -21.229254      0.29933121    -20.929922      3.630184e-05   7.1317299e-05  5.4146357e-05  1327.0392      331.75979      331.75979      5.3921832e-05  1.4605998e+08
    102300   0.20033564    -21.228591      0.3005003     -20.92809       6.69711e-05    4.6295267e-05  8.8356985e-05  1324.6847      331.17117      331.17117      6.7207784e-05  1.4528392e+08
    102400   0.20026555    -21.228383      0.30039516    -20.927988      3.3873214e-05  6.5512565e-05  2.3997383e-05  1322.3302      330.58254      330.58254      4.1127721e-05  1.4451061e+08
    102500   0.19963986    -21.227978      0.29945664    -20.928521      8.4321638e-05  5.8257895e-05  5.4195363e-05  1319.9757      329.99391      329.99391      6.5591632e-05  1.4374005e+08
    102600   0.19937083    -21.228651      0.2990531     -20.929598      6.832029e-05   5.0237835e-05  4.9928472e-05  1317.6212      329.40529      329.40529      5.6162199e-05  1.4297223e+08
    102700   0.1994588     -21.229517      0.29918506    -20.930332      6.3380866e-05  7.6476008e-05  5.2775366e-05  1315.2667      328.81666      328.81666      6.4210747e-05  1.4220716e+08
    102800   0.19995172    -21.228906      0.29992443    -20.928982      8.6912574e-05  3.3095782e-05  1.2979047e-05  1312.9122      328.22804      328.22804      4.4329135e-05  1.4144481e+08
    102900   0.2004008     -21.228878      0.30059805    -20.92828       3.4701694e-05  2.7499928e-05  6.5806131e-05  1310.5577      327.63941      327.63941      4.2669251e-05  1.406852e+08 
    103000   0.20047551    -21.229392      0.3007101     -20.928682      2.0935699e-05  6.044915e-05   7.5460232e-05  1308.2032      327.05079      327.05079      5.2281694e-05  1.3992831e+08
    103100   0.19947392    -21.229376      0.29920773    -20.930168      4.1352792e-05  2.0537328e-05  3.8452709e-05  1305.8486      326.46216      326.46216      3.344761e-05   1.3917414e+08
    103200   0.19870562    -21.229377      0.29805529    -20.931322      1.682308e-05   2.364416e-05   2.9489968e-05  1303.4941      325.87354      325.87354      2.3319069e-05  1.3842269e+08
    103300   0.19984099    -21.229077      0.29975834    -20.929318      0.0001066767   6.451075e-05   9.6604538e-05  1301.1396      325.28491      325.28491      8.9263997e-05  1.3767394e+08
    103400   0.20075698    -21.230025      0.30113231    -20.928893      5.3806777e-05  9.1518134e-05  7.3669757e-05  1298.7851      324.69629      324.69629      7.2998223e-05  1.369279e+08 
    103500   0.19997884    -21.229465      0.29996511    -20.9295        9.4192339e-05  9.394324e-05   0.00011151915  1296.4306      324.10766      324.10766      9.9884911e-05  1.3618456e+08
    103600   0.19993889    -21.230135      0.29990519    -20.93023       4.1243302e-05  6.0158716e-05  8.7209922e-05  1294.0761      323.51904      323.51904      6.2870647e-05  1.3544392e+08
    103700   0.19969806    -21.230213      0.29954395    -20.930669     -6.2042416e-06  1.1642468e-05  8.5916742e-06  1291.7216      322.93041      322.93041      4.6766337e-06  1.3470596e+08
    103800   0.19987962    -21.229242      0.29981628    -20.929425      3.6773741e-05  3.3564717e-05  4.4859836e-05  1289.3671      322.34178      322.34178      3.8399431e-05  1.3397069e+08
    103900   0.20041157    -21.229495      0.3006142     -20.928881      4.8247243e-05  6.9352877e-05  9.784333e-05   1287.0126      321.75316      321.75316      7.1814483e-05  1.3323811e+08
    104000   0.20013919    -21.230218      0.30020562    -20.930012      5.8791442e-05  0.00011134131  4.6502865e-05  1284.6581      321.16453      321.16453      7.2211874e-05  1.3250819e+08
    104100   0.19965273    -21.230901      0.29947594    -20.931425      7.3197059e-05  9.2822167e-05  0.00010736411  1282.3036      320.57591      320.57591      9.1127779e-05  1.3178095e+08
    104200   0.19949965    -21.230162      0.29924633    -20.930915      4.7055495e-05  6.7346122e-05  2.5770029e-05  1279.9491      319.98728      319.98728      4.6723882e-05  1.3105637e+08
    104300   0.20015498    -21.229637      0.30022931    -20.929407      5.3647452e-05  7.6540691e-05  9.8803707e-05  1277.5946      319.39866      319.39866      7.6330617e-05  1.3033446e+08
    104400   0.19958886    -21.229983      0.29938015    -20.930603      8.0202221e-05  4.695363e-05   6.5119623e-05  1275.2401      318.81003      318.81003      6.4091825e-05  1.296152e+08 
    104500   0.1994021     -21.230968      0.29910001    -20.931868      2.5363466e-05  9.3667835e-05  5.1830608e-05  1272.8856      318.22141      318.22141      5.695397e-05   1.2889859e+08
    104600   0.19972789    -21.231238      0.29958869    -20.931649      4.8732498e-05  5.9330084e-05  7.5980999e-05  1270.5311      317.63278      317.63278      6.134786e-05   1.2818463e+08
    104700   0.20013697    -21.230649      0.3002023     -20.930447      4.0806767e-05  3.1221777e-05  8.7061122e-05  1268.1766      317.04416      317.04416      5.3029888e-05  1.2747331e+08
    104800   0.20025814    -21.230852      0.30038405    -20.930468      7.3000757e-05  9.1012778e-05  7.8597568e-05  1265.8221      316.45553      316.45553      8.0870368e-05  1.2676462e+08
    104900   0.19992632    -21.231216      0.29988633    -20.93133       8.3771453e-05  0.00010368839  0.00011051033  1263.4676      315.8669       315.8669       9.9323389e-05  1.2605857e+08
    105000   0.19922165    -21.230958      0.29882934    -20.932129      3.8787298e-05  0.00010345038  6.3976516e-05  1261.1131      315.27828      315.27828      6.8738064e-05  1.2535514e+08
    105100   0.19960128    -21.23118       0.29939877    -20.931782      2.174586e-05   3.4106292e-05  7.1501403e-05  1258.7586      314.68965      314.68965      4.2451185e-05  1.2465434e+08
    105200   0.20074096    -21.231844      0.30110827    -20.930736      6.6604313e-05  2.8813685e-05  6.44581e-05    1256.4041      314.10103      314.10103      5.3292032e-05  1.2395615e+08
    105300   0.19977996    -21.231034      0.29966679    -20.931367      6.9906158e-06  5.5450226e-05  3.6018972e-05  1254.0496      313.5124       313.5124       3.2819938e-05  1.2326057e+08
    105400   0.19967731    -21.232162      0.29951282    -20.932649      5.8386524e-05  6.2242813e-05  9.3764249e-05  1251.6951      312.92378      312.92378      7.1464528e-05  1.225676e+08 
    105500   0.19966971    -21.232515      0.29950142    -20.933013      9.5118247e-05  3.9052028e-05  7.0352228e-05  1249.3406      312.33515      312.33515      6.8174168e-05  1.2187723e+08
    105600   0.20032606    -21.231918      0.30048593    -20.931432      2.7872701e-05  5.0414813e-05  6.4929032e-05  1246.9861      311.74653      311.74653      4.7738849e-05  1.2118946e+08
    105700   0.20025083    -21.231539      0.30037309    -20.931166      4.5285477e-05  3.6975984e-05  0.00010790851  1244.6316      311.1579       311.1579       6.3389989e-05  1.2050429e+08
    105800   0.20029896    -21.232813      0.30044529    -20.932368      9.5820474e-05  7.950717e-05   9.9135667e-05  1242.2771      310.56928      310.56928      9.1487771e-05  1.198217e+08 
    105900   0.19925328    -21.232604      0.29887678    -20.933728      9.5436787e-05  3.6757879e-05  0.0001347837   1239.9226      309.98065      309.98065      8.899279e-05   1.1914169e+08
    106000   0.19995948    -21.232627      0.29993607    -20.932691      0.00013011995  5.739767e-05   9.6955309e-05  1237.5681      309.39203      309.39203      9.4824311e-05  1.1846426e+08
    106100   0.20082433    -21.232706      0.30123333    -20.931473      5.5158469e-05  0.0001063883   0.00010047151  1235.2136      308.8034       308.8034       8.7339426e-05  1.177894e+08 
    106200   0.20041291    -21.233217      0.3006162     -20.932601      8.4010315e-05  6.3469714e-05  3.4677555e-05  1232.8591      308.21477      308.21477      6.0719195e-05  1.1711711e+08
    106300   0.19942565    -21.233039      0.29913533    -20.933904      6.1573573e-05  3.8231068e-05  4.2646779e-05  1230.5046      307.62615      307.62615      4.7483807e-05  1.1644738e+08
    106400   0.19985633    -21.233417      0.29978134    -20.933636      6.4333081e-05  9.6282112e-05  5.1439317e-05  1228.1501      307.03752      307.03752      7.0684837e-05  1.1578022e+08
    106500   0.200129      -21.232333      0.30019034    -20.932143      0.00010247593  3.0392049e-05  4.6128409e-05  1225.7956      306.4489       306.4489       5.9665462e-05  1.151156e+08 
    106600   0.20012936    -21.232672      0.30019089    -20.932481      0.00011199432  8.9179107e-05  8.1591462e-05  1223.4411      305.86027      305.86027      9.4254962e-05  1.1445353e+08
    106700   0.19970891    -21.233158      0.29956022    -20.933598      8.8521484e-05  7.28746e-05    6.6166687e-05  1221.0866      305.27165      305.27165      7.5854257e-05  1.1379401e+08
    106800   0.19903279    -21.232718      0.29854605    -20.934172      9.2393918e-05  9.8818067e-05  0.0001084465   1218.7321      304.68302      304.68302      9.9886162e-05  1.1313703e+08
    106900   0.20087986    -21.234397      0.30131662    -20.93308       3.675419e-05   2.7631437e-05  7.4127197e-05  1216.3776      304.0944       304.0944       4.6170942e-05  1.1248257e+08
    107000   0.20030867    -21.232825      0.30045984    -20.932365      6.8178881e-05  4.505836e-05   2.8421017e-05  1214.0231      303.50577      303.50577      4.7219419e-05  1.1183065e+08
    107100   0.20000556    -21.233507      0.30000519    -20.933502      4.1122968e-05  0.00010217898  8.1853489e-05  1211.6686      302.91715      302.91715      7.5051814e-05  1.1118125e+08
    107200   0.19907064    -21.233803      0.29860282    -20.9352        6.8163189e-05  8.2867831e-05  7.8103252e-05  1209.3141      302.32852      302.32852      7.6378091e-05  1.1053437e+08
    107300   0.20022565    -21.235204      0.30033531    -20.934869      0.00010720358  9.2066375e-05  4.1706702e-05  1206.9596      301.73989      301.73989      8.0325554e-05  1.0989001e+08
    107400   0.19988704    -21.233903      0.29982741    -20.934076      6.7303133e-05  8.3327787e-05  0.00010339755  1204.6051      301.15127      301.15127      8.4676158e-05  1.0924815e+08
    107500   0.19985847    -21.234016      0.29978455    -20.934231      9.0592677e-05  9.0225487e-05  7.2391407e-05  1202.2506      300.56264      300.56264      8.440319e-05   1.086088e+08 
    107600   0.19998059    -21.234362      0.29996773    -20.934394      9.3614821e-05  0.0001015047   8.379099e-05   1199.8961      299.97402      299.97402      9.2970169e-05  1.0797194e+08
    107700   0.19992037    -21.234379      0.2998774     -20.934502      6.5908928e-05  8.2350067e-05  0.0001152211   1197.5416      299.38539      299.38539      8.78267e-05    1.0733758e+08
    107800   0.19990675    -21.23429       0.29985698    -20.934433      7.0506908e-05  0.00011484535  6.1598198e-05  1195.1871      298.79677      298.79677      8.2316818e-05  1.0670571e+08
    107900   0.20087606    -21.234983      0.30131092    -20.933672      8.0995216e-05  7.5604817e-05  0.00011591006  1192.8326      298.20814      298.20814      9.0836697e-05  1.0607633e+08
    108000   0.20066523    -21.235063      0.30099468    -20.934069      9.6022395e-05  9.5131342e-05  8.8949339e-05  1190.4781      297.61952      297.61952      9.3367692e-05  1.0544942e+08
    108100   0.19963775    -21.235571      0.29945347    -20.936118      7.4558842e-05  8.9525171e-05  5.0640974e-05  1188.1236      297.03089      297.03089      7.1574996e-05  1.0482499e+08
    108200   0.19937636    -21.236049      0.29906139    -20.936988      3.6570529e-05  4.0210536e-05  5.1163816e-05  1185.7691      296.44227      296.44227      4.2648294e-05  1.0420303e+08
    108300   0.19993418    -21.235114      0.29989811    -20.935216      1.1621008e-05  2.7532604e-05  1.7476919e-05  1183.4146      295.85364      295.85364      1.8876844e-05  1.0358354e+08
    108400   0.20080885    -21.236209      0.30121011    -20.934999      7.3140471e-05  5.9687642e-05  8.0365595e-05  1181.0601      295.26502      295.26502      7.106457e-05   1.029665e+08 
    108500   0.19903126    -21.23391       0.29854375    -20.935366      0.00013030253  0.00012422919  8.6805182e-05  1178.7056      294.67639      294.67639      0.00011377897  1.0235192e+08
    108600   0.19963551    -21.23574       0.29945012    -20.936289      4.9073905e-05  3.3517213e-05  3.9818715e-05  1176.3511      294.08776      294.08776      4.0803278e-05  1.017398e+08 
    108700   0.19974461    -21.235659      0.29961377    -20.936045      3.8636094e-05  7.9178472e-05  8.1008829e-05  1173.9966      293.49914      293.49914      6.6274465e-05  1.0113011e+08
    108800   0.20043018    -21.235587      0.30064211    -20.934945      7.4810393e-05  8.2568792e-05  6.4080188e-05  1171.6421      292.91051      292.91051      7.3819791e-05  1.0052287e+08
    108900   0.20034454    -21.235857      0.30051365    -20.935344      0.00010486648  9.191794e-05   0.00013165092  1169.2876      292.32189      292.32189      0.00010947845  99918061     
    109000   0.19929292    -21.235597      0.29893624    -20.936661      8.8526754e-05  5.0984736e-05  7.2505851e-05  1166.9331      291.73326      291.73326      7.0672447e-05  99315684     
    109100   0.19951157    -21.237149      0.29926421    -20.937885      6.2807948e-05  0.00010446417  0.00010833585  1164.5785      291.14464      291.14464      9.1869323e-05  98715734     
    109200   0.19921086    -21.2363        0.29881314    -20.937486      7.908738e-05   1.7969241e-05  5.3190762e-05  1162.224       290.55601      290.55601      5.0082461e-05  98118204     
    109300   0.19984788    -21.235769      0.29976867    -20.936         3.9684874e-05  1.3992098e-05  6.6428309e-05  1159.8695      289.96739      289.96739      4.0035094e-05  97523090     
    109400   0.200158      -21.23608       0.30023385    -20.935846      0.00013150822  8.9442288e-05  0.00013804208  1157.515       289.37876      289.37876      0.0001196642   96930388     
    109500   0.19981329    -21.236279      0.29971679    -20.936562      0.00010662239  0.00010164391  9.7333614e-05  1155.1605      288.79014      288.79014      0.00010186664  96340092     
    109600   0.19913713    -21.236721      0.29870255    -20.938019      0.00010370925  9.4472385e-05  0.00012832743  1152.806       288.20151      288.20151      0.00010883636  95752197     
    109700   0.19929845    -21.236839      0.29894454    -20.937895      6.9139246e-05  9.1429697e-05  0.00014787509  1150.4515      287.61288      287.61288      0.00010281468  95166699     
    109800   0.20025819    -21.236653      0.30038413    -20.936269      0.00010155062  9.5747985e-05  0.00012448963  1148.097       287.02426      287.02426      0.00010726274  94583593     
    109900   0.20024893    -21.236988      0.30037023    -20.936618      4.985372e-05   6.2513073e-05  8.1188309e-05  1145.7425      286.43563      286.43563      6.4518367e-05  94002873     
    110000   0.20046286    -21.238504      0.30069113    -20.937812      0.00011524465  3.5003554e-05  0.00010370794  1143.388       285.84701      285.84701      8.4652048e-05  93424535     
    110100   0.19942953    -21.237681      0.29914116    -20.93854       9.6998793e-05  8.0227401e-05  6.0651449e-05  1141.0335      285.25838      285.25838      7.9292547e-05  92848575     
    110200   0.19981285    -21.236835      0.29971612    -20.937119      0.00015439924  0.00012661409  5.5978547e-05  1138.679       284.66976      284.66976      0.00011233063  92274986     
    110300   0.19995458    -21.236528      0.29992872    -20.9366        0.00014546008  0.00016193032  0.00010100807  1136.3245      284.08113      284.08113      0.00013613282  91703764     
    110400   0.19971754    -21.237088      0.29957316    -20.937515      8.201447e-05   9.8050472e-05  9.2906703e-05  1133.97        283.49251      283.49251      9.0990548e-05  91134905     
    110500   0.19925392    -21.237864      0.29887773    -20.938986      3.8978479e-05  0.00010532294  8.9665917e-05  1131.6155      282.90388      282.90388      7.7989113e-05  90568403     
    110600   0.19977776    -21.238277      0.29966348    -20.938614      0.00016261426  0.00013922941  8.3075842e-05  1129.261       282.31526      282.31526      0.0001283065   90004254     
    110700   0.20058996    -21.237879      0.30088177    -20.936997      9.4106291e-05  8.9154198e-05  0.00017437358  1126.9065      281.72663      281.72663      0.00011921136  89442452     
    110800   0.20096252    -21.238882      0.30144061    -20.937441      0.00010749237  0.00012017734  0.00011832597  1124.552       281.13801      281.13801      0.00011533189  88882993     
    110900   0.19983478    -21.238618      0.29974903    -20.938869      6.732684e-05   0.00012280786  5.7673588e-05  1122.1975      280.54938      280.54938      8.2602763e-05  88325871     
    111000   0.19949241    -21.239457      0.29923547    -20.940222      5.5730383e-05  4.5946181e-05  9.0429503e-05  1119.843       279.96075      279.96075      6.4035355e-05  87771083     
    111100   0.20033707    -21.239008      0.30050245    -20.938505      0.00014299111  0.00014545417  9.6741056e-05  1117.4885      279.37213      279.37213      0.00012839544  87218623     
    111200   0.19993315    -21.238001      0.29989657    -20.938105      8.6403195e-05  0.00010554597  0.00011933805  1115.134       278.7835       278.7835       0.0001037624   86668485     
    111300   0.20020791    -21.238983      0.30030871    -20.938674      7.6696743e-05  0.00015378871  0.00014911646  1112.7795      278.19488      278.19488      0.00012653397  86120666     
    111400   0.1993069     -21.23845       0.2989572     -20.939493      0.00014318883  0.00013480577  0.00012902314  1110.425       277.60625      277.60625      0.00013567258  85575161     
    111500   0.19961717    -21.238994      0.2994226     -20.939571      0.00016518084  0.00012263344  0.00013203265  1108.0705      277.01763      277.01763      0.00013994898  85031963     
    111600   0.20068634    -21.239362      0.30102634    -20.938336      0.0001189761   0.00011897466  0.00013331468  1105.716       276.429        276.429        0.00012375515  84491070     
    111700   0.20019865    -21.238887      0.30029482    -20.938592      9.3413494e-05  3.4173083e-05  4.0815932e-05  1103.3615      275.84038      275.84038      5.613417e-05   83952475     
    111800   0.1995503     -21.239307      0.2993223     -20.939984      6.4441062e-05  9.9529231e-05  1.0059178e-05  1101.007       275.25175      275.25175      5.8009824e-05  83416173     
    111900   0.19921807    -21.240702      0.29882396    -20.941878      0.00010152777  0.00013962314  8.6873046e-05  1098.6525      274.66313      274.66313      0.00010934132  82882161     
    112000   0.1992913     -21.239901      0.29893381    -20.940967      7.9017525e-05  0.0001420736   0.00012254225  1096.298       274.0745       274.0745       0.00011454446  82350433     
    112100   0.20020743    -21.2404        0.30030799    -20.940092      0.00012951525  0.00011156917  0.00010102437  1093.9435      273.48587      273.48587      0.00011403626  81820983     
    112200   0.20002372    -21.239985      0.30003243    -20.939953      0.00015607099  0.0001884279   0.00013339153  1091.589       272.89725      272.89725      0.0001592968   81293808     
    112300   0.2002706     -21.240364      0.30040274    -20.939961      7.8702795e-05  0.00012001225  0.00010522424  1089.2345      272.30862      272.30862      0.00010131309  80768902     
    112400   0.19977148    -21.239629      0.29965407    -20.939975      0.00012982011  0.00011840315  0.00011907112  1086.88        271.72         271.72         0.00012243146  80246260     
    112500   0.20007922    -21.239757      0.30011567    -20.939641      6.0999888e-05  5.5722482e-05  5.3374041e-05  1084.5255      271.13137      271.13137      5.6698804e-05  79725878     
    112600   0.20039219    -21.240556      0.30058512    -20.939971      5.2262371e-05 -1.1602188e-05 -4.1056206e-05  1082.171       270.54275      270.54275     -1.3200736e-07  79207751     
    112700   0.19979201    -21.240853      0.29968486    -20.941168      9.4040719e-05  0.00010189209  0.00013774555  1079.8165      269.95412      269.95412      0.00011122612  78691873     
    112800   0.19914561    -21.24102       0.29871527    -20.942304      0.00019799172  0.00020907195  0.0001106102   1077.462       269.3655       269.3655       0.00017255796  78178240     
    112900   0.19983733    -21.241239      0.29975285    -20.941486      0.00023997887  0.00018398578  0.0002046308   1075.1075      268.77687      268.77687      0.00020953182  77666847     
    113000   0.20040566    -21.241122      0.30060533    -20.940517      0.00018484466  0.00012987728  0.00015845823  1072.753       268.18825      268.18825      0.00015772672  77157689     
    113100   0.20022835    -21.241462      0.30033937    -20.941123      0.00012973668  0.00015387367  6.934997e-05   1070.3985      267.59962      267.59962      0.00011765344  76650761     
    113200   0.19961963    -21.241387      0.29942629    -20.941961      0.00019248033  0.00015674157  0.00010854703  1068.044       267.011        267.011        0.00015258965  76146059     
    113300   0.19930072    -21.241607      0.29894793    -20.942659      0.00015826575  0.00013734038  0.00013703083  1065.6895      266.42237      266.42237      0.00014421232  75643576     
    113400   0.2002837     -21.241934      0.3004224     -20.941512      6.5800762e-05  0.00011916763  0.00012953338  1063.335       265.83374      265.83374      0.00010483392  75143309     
    113500   0.20025324    -21.241359      0.3003767     -20.940982      8.3704776e-05  8.6166462e-05  4.6018334e-05  1060.9805      265.24512      265.24512      7.1963191e-05  74645253     
    113600   0.19995444    -21.241655      0.29992851    -20.941726      0.00011178163  9.511072e-05   3.7418764e-05  1058.626       264.65649      264.65649      8.1437039e-05  74149402     
    113700   0.19923169    -21.242042      0.29884439    -20.943198      0.00011649112  0.00016940475  0.00014226599  1056.2715      264.06787      264.06787      0.00014272062  73655752     
    113800   0.19962374    -21.243385      0.29943246    -20.943953      0.00016876871  0.0001426873   0.00013398008  1053.917       263.47924      263.47924      0.0001484787   73164298     
    113900   0.19987337    -21.242128      0.2998069     -20.942321      0.00015371993  0.00013706633  0.00023381268  1051.5625      262.89062      262.89062      0.00017486631  72675035     
    114000   0.20014769    -21.242163      0.30021838    -20.941944      0.00013766862  9.4616282e-05  0.00015606753  1049.208       262.30199      262.30199      0.00012945081  72187958     
    114100   0.20037723    -21.243         0.30056269    -20.942437      9.3050011e-05  0.00014536149  8.816891e-05   1046.8535      261.71337      261.71337      0.00010886014  71703062     
    114200   0.19962521    -21.242466      0.29943467    -20.943031      0.0001084311   5.2329244e-05  8.6277225e-05  1044.499       261.12474      261.12474      8.2345857e-05  71220343     
    114300   0.2000983     -21.243234      0.30014429    -20.94309       0.00015318777  0.00011880499  9.4709713e-05  1042.1445      260.53612      260.53612      0.00012223416  70739795     
    114400   0.20029402    -21.242815      0.30043788    -20.942377      0.00016552736  0.00022764481  0.00020836349  1039.79        259.94749      259.94749      0.00020051189  70261413     
    114500   0.20063493    -21.243285      0.30094923    -20.942336      0.00019979119  0.00021774838  0.00027318114  1037.4355      259.35886      259.35886      0.00023024024  69785193     
    114600   0.1997355     -21.243169      0.2996001     -20.943568      0.00015519612  0.00011484279  0.0001399702   1035.081       258.77024      258.77024      0.0001366697   69311129     
    114700   0.19938675    -21.244325      0.29907698    -20.945248      8.5678784e-05  7.3977455e-05  0.00016376749  1032.7265      258.18161      258.18161      0.00010780791  68839218     
    114800   0.1993159     -21.243801      0.2989707     -20.944831      0.0001143137   0.00016207654  9.1482269e-05  1030.372       257.59299      257.59299      0.00012262417  68369453     
    114900   0.20004313    -21.243408      0.30006154    -20.943346      8.1155064e-05  5.190128e-05   0.00015215639  1028.0175      257.00436      257.00436      9.5070913e-05  67901830     
    115000   0.20031197    -21.24386       0.30046479    -20.943395      8.2505277e-05  5.9914156e-05  0.00017618419  1025.663       256.41574      256.41574      0.00010620121  67436345     
    115100   0.20050175    -21.244858      0.30074946    -20.944109      7.2429243e-05  8.9692116e-05  0.0001199918   1023.3084      255.82711      255.82711      9.4037719e-05  66972992     
    115200   0.19929301    -21.244291      0.29893637    -20.945355      0.00012092181  9.4677723e-05  0.0001210668   1020.9539      255.23849      255.23849      0.00011222211  66511766     
    115300   0.19925974    -21.244007      0.29888646    -20.94512       0.00010710625  0.00012141762  0.00015629518  1018.5994      254.64986      254.64986      0.00012827301  66052662     
    115400   0.2001596     -21.243997      0.30023625    -20.943761      0.00015667239  0.00015698522  9.1331368e-05  1016.2449      254.06124      254.06124      0.00013499633  65595676     
    115500   0.2002349     -21.244554      0.3003492     -20.944204      0.00019097651  0.00016986383  0.00013141894  1013.8904      253.47261      253.47261      0.00016408643  65140803     
    115600   0.19940725    -21.244561      0.29910773    -20.945453      0.0001083669   0.00013598449  0.00014710347  1011.5359      252.88399      252.88399      0.00013048495  64688037     
    115700   0.1999357     -21.245476      0.2999004     -20.945575      0.00020605606  0.00012177416  0.00021671388  1009.1814      252.29536      252.29536      0.0001815147   64237374     
    115800   0.20074241    -21.245155      0.30111046    -20.944045      8.383479e-05   0.00014378616  0.000218372    1006.8269      251.70673      251.70673      0.00014866432  63788810     
    115900   0.20006636    -21.244678      0.30009638    -20.944582      0.00011289349  0.00012437655  9.8077176e-05  1004.4724      251.11811      251.11811      0.00011178241  63342338     
    116000   0.19966208    -21.245457      0.29948997    -20.945967      0.00019899599  0.00018988617  0.00017551668  1002.1179      250.52948      250.52948      0.00018813295  62897954     
    116100   0.19954993    -21.246426      0.29932175    -20.947104      8.8198289e-05  0.00019852035  0.00016939955  999.76343      249.94086      249.94086      0.0001520394   62455654     
    116200   0.19968809    -21.245676      0.29952899    -20.946147      0.00023615522  0.00020288165  0.00017241959  997.40893      249.35223      249.35223      0.00020381882  62015432     
    116300   0.20003734    -21.245054      0.30005286    -20.945001      0.00015824187  0.0001701069   0.00023346447  995.05443      248.76361      248.76361      0.00018727108  61577284     
    116400   0.20033925    -21.246017      0.30050572    -20.945511      0.00017706279  0.00019056866  0.00015484366  992.69993      248.17498      248.17498      0.00017415837  61141204     
    116500   0.19923175    -21.245924      0.29884448    -20.94708       0.00018431032  0.0001687031   0.00015067905  990.34543      247.58636      247.58636      0.00016789749  60707188     
    116600   0.19918362    -21.246538      0.29877229    -20.947766      0.00014883572  0.00015873588  0.00014520662  987.99092      246.99773      246.99773      0.00015092607  60275231     
    116700   0.2003135     -21.246411      0.30046709    -20.945944      0.00016283182  0.00017194137  0.00021877124  985.63642      246.40911      246.40911      0.00018451481  59845328     
    116800   0.20021001    -21.246224      0.30031186    -20.945913      0.00019420772  0.0002221065   0.0002478891   983.28192      245.82048      245.82048      0.0002214011   59417473     
    116900   0.20006807    -21.247079      0.30009896    -20.94698       0.00024542971  0.00021034635  0.00025052798  980.92742      245.23185      245.23185      0.00023543468  58991663     
    117000   0.19923274    -21.247369      0.29884597    -20.948523      0.00012676451  0.00020553478  9.8105246e-05  978.57292      244.64323      244.64323      0.00014346818  58567892     
    117100   0.2000016     -21.247716      0.29999924    -20.947717      0.00015023825  0.00017386496  0.00014874272  976.21842      244.0546       244.0546       0.00015761531  58146156     
    117200   0.20050696    -21.247434      0.30075728    -20.946676      9.983995e-05   9.626502e-05   0.00016860937  973.86391      243.46598      243.46598      0.00012157145  57726448     
    117300   0.20001438    -21.247635      0.30001842    -20.947617      0.00012101214  6.2191088e-05  8.4854153e-05  971.50941      242.87735      242.87735      8.9352461e-05  57308766     
    117400   0.19953584    -21.247645      0.29930061    -20.948344      0.00027185858  0.00014729904  0.00025416618  969.15491      242.28873      242.28873      0.00022444127  56893103     
    117500   0.20025316    -21.248414      0.30037658    -20.948037      0.00018055834  0.00012336619  0.00018249984  966.80041      241.7001       241.7001       0.00016214145  56479455     
    117600   0.20054705    -21.247518      0.30081741    -20.946701      0.00011274854  0.00024519507  0.00014707577  964.44591      241.11148      241.11148      0.0001683398   56067816     
    117700   0.20010582    -21.24751       0.30015557    -20.947354      8.7804013e-05  4.0808944e-05  0.00010457053  962.09141      240.52285      240.52285      7.772783e-05   55658183     
    117800   0.19966724    -21.248598      0.29949771    -20.9491        0.00018708199  9.6828545e-05  0.00027120751  959.7369       239.93423      239.93423      0.00018503935  55250550     
    117900   0.19918615    -21.248323      0.29877608    -20.949547      0.00018031911  0.00017280339  0.00012305811  957.3824       239.3456       239.3456       0.00015872687  54844911     
    118000   0.19952423    -21.248612      0.2992832     -20.949329      0.00012872181  0.0001520189   0.00019320569  955.0279       238.75698      238.75698      0.00015798213  54441264     
    118100   0.2002048     -21.249087      0.30030405    -20.948783      0.00014237407  0.00013030892  0.00022371612  952.6734       238.16835      238.16835      0.00016546637  54039601     
    118200   0.19999953    -21.248492      0.29999614    -20.948496      0.00018523295  0.00010523796  0.00011934342  950.3189       237.57972      237.57972      0.00013660478  53639919     
    118300   0.20053441    -21.248986      0.30079845    -20.948188      0.00020474916  0.00020109353  0.00020297177  947.9644       236.9911       236.9911       0.00020293815  53242213     
    118400   0.20094036    -21.249646      0.30140738    -20.948238      0.0001087205   0.00014915779  0.00030879781  945.60989      236.40247      236.40247      0.00018889203  52846477     
    118500   0.19992488    -21.249351      0.29988417    -20.949467      0.00020028749  0.00023581722  0.00011507875  943.25539      235.81385      235.81385      0.00018372782  52452707     
    118600   0.19938628    -21.249879      0.29907627    -20.950803      0.00012279839  0.00016292521  0.00025360824  940.90089      235.22522      235.22522      0.00017977728  52060898     
    118700   0.1996042     -21.249693      0.29940315    -20.95029       0.00013322055  0.00018168423  0.00021635155  938.54639      234.6366       234.6366       0.00017708544  51671045     
    118800   0.20048856    -21.250021      0.30072968    -20.949291      0.0002955613   0.0002978499   0.00026564505  936.19189      234.04797      234.04797      0.00028635208  51283144     
    118900   0.19958231    -21.249352      0.29937031    -20.949982      0.00025239485  0.00020954127  0.00018126668  933.83739      233.45935      233.45935      0.00021440093  50897188     
    119000   0.1997314     -21.250263      0.29959395    -20.950669      0.00028133068  8.3072426e-05  0.0002031536   931.48288      232.87072      232.87072      0.00018918557  50513174     
    119100   0.20034731    -21.250623      0.30051781    -20.950105      0.00017301891  0.00030269313  0.00011806154  929.12838      232.2821       232.2821       0.00019792453  50131096     
    119200   0.20091962    -21.250513      0.30137627    -20.949137      0.00017796932  8.8168038e-05  9.4221015e-05  926.77388      231.69347      231.69347      0.00012011946  49750950     
    119300   0.20014344    -21.250627      0.30021201    -20.950415      0.00019889464  0.00021658395  0.00025550077  924.41938      231.10484      231.10484      0.00022365979  49372730     
    119400   0.19941485    -21.251182      0.29911914    -20.952063      0.00012225332  0.00016722825  0.00021257289  922.06488      230.51622      230.51622      0.00016735149  48996432     
    119500   0.19913057    -21.250711      0.29869272    -20.952018      0.00015316973  0.00020363435  0.00014418526  919.71038      229.92759      229.92759      0.00016699645  48622051     
    119600   0.19977279    -21.251416      0.29965603    -20.95176       0.0001309541   0.00016482944  0.00021011429  917.35587      229.33897      229.33897      0.00016863261  48249582     
    119700   0.20006841    -21.251881      0.30009947    -20.951782      0.00016232921 -5.6469323e-06  0.00010178704  915.00137      228.75034      228.75034      8.615644e-05   47879020     
    119800   0.20022793    -21.251492      0.30033874    -20.951154      0.00025455216  0.00030339123  0.00031805548  912.64687      228.16172      228.16172      0.00029199962  47510360     
    119900   0.20041535    -21.251682      0.30061987    -20.951062      0.000252941    0.0002997538   0.00029437446  910.29237      227.57309      227.57309      0.00028235642  47143598     
    120000   0.19983552    -21.252229      0.29975013    -20.952479      0.0002065169   0.00032458066  0.00033323899  907.93787      226.98447      226.98447      0.00028811218  46778728     
    120100   0.19880471    -21.252805      0.29820392    -20.954601      0.00019740212  0.00011948632  0.00020051633  905.58337      226.39584      226.39584      0.00017246826  46415745     
    120200   0.19921126    -21.252485      0.29881375    -20.953671      0.00036624919  0.00025368226  0.00023973939  903.22886      225.80722      225.80722      0.00028655695  46054645     
    120300   0.19973247    -21.252407      0.29959556    -20.952811      0.00013817218  0.00015574479  0.00019960101  900.87436      225.21859      225.21859      0.00016450599  45695423     
    120400   0.20018417    -21.25265       0.3002731     -20.952377      0.00017615404  0.00015901882  0.00018479783  898.51986      224.62997      224.62997      0.00017332356  45338073     
    120500   0.20018913    -21.25249       0.30028055    -20.95221       0.00029438996  0.00028350904  0.00034422594  896.16536      224.04134      224.04134      0.00030737498  44982592     
    120600   0.2002164     -21.25339       0.30032145    -20.953068      0.00023865936  0.00019043075  0.00013421737  893.81086      223.45271      223.45271      0.00018776916  44628973     
    120700   0.19889616    -21.25315       0.29834111    -20.954809      0.00014069662  0.00019515403  0.00019119985  891.45636      222.86409      222.86409      0.0001756835   44277213     
    120800   0.19960819    -21.254138      0.29940915    -20.954729      0.00013420277  0.00012238045  0.00010711487  889.10185      222.27546      222.27546      0.0001212327   43927306     
    120900   0.20042701    -21.253932      0.30063735    -20.953295      0.00023007628  0.00015989384  9.7449805e-05  886.74735      221.68684      221.68684      0.00016247331  43579247     
    121000   0.20027539    -21.254108      0.30040993    -20.953698      6.5409304e-05  0.00026729506  0.00024958885  884.39285      221.09821      221.09821      0.00019409774  43233031     
    121100   0.19950196    -21.253646      0.2992498     -20.954397      0.00018945833  0.00012584142  0.00011067098  882.03835      220.50959      220.50959      0.00014199024  42888654     
    121200   0.19987106    -21.253994      0.29980344    -20.954191      0.00014843307  0.00031358168  0.00018279044  879.68385      219.92096      219.92096      0.00021493507  42546111     
    121300   0.2007242     -21.254266      0.30108313    -20.953183      0.00018620175  9.3004039e-05  0.00021008619  877.32935      219.33234      219.33234      0.00016309733  42205397     
    121400   0.20057138    -21.254376      0.30085391    -20.953522      0.00022896593  0.00022887227  0.00029914653  874.97484      218.74371      218.74371      0.00025232824  41866506     
    121500   0.19979865    -21.255258      0.29969482    -20.955564      0.00015061357  0.00022320295  0.0002435628   872.62034      218.15509      218.15509      0.00020579311  41529434     
    121600   0.19892254    -21.255213      0.29838067    -20.956832      0.00023243185  0.0002926595   0.00021506191  870.26584      217.56646      217.56646      0.00024671775  41194177     
    121700   0.20000106    -21.254922      0.29999844    -20.954924      9.0556177e-05  0.00012274586  0.00023132715  867.91134      216.97783      216.97783      0.00014820973  40860729     
    121800   0.19982859    -21.254638      0.29973973    -20.954898      0.00029244749  0.00013242857  0.00034450163  865.55684      216.38921      216.38921      0.00025645923  40529084     
    121900   0.19974798    -21.255068      0.29961882    -20.95545       0.00019984286  0.00030383123  0.00030487161  863.20234      215.80058      215.80058      0.00026951523  40199240     
    122000   0.19977663    -21.255556      0.29966179    -20.955894      0.00026904967  0.00022732122  0.00029177432  860.84783      215.21196      215.21196      0.00026271507  39871189     
    122100   0.20010364    -21.255571      0.30015231    -20.955419      0.00037196742  0.00033335786  0.00027091082  858.49333      214.62333      214.62333      0.00032541203  39544929     
    122200   0.20030668    -21.255367      0.30045686    -20.95491       0.00022179898  0.00019102816  0.00020300728  856.13883      214.03471      214.03471      0.00020527814  39220453     
    122300   0.20033925    -21.255728      0.30050571    -20.955223      0.0002880293   0.00026716977  0.00027554795  853.78433      213.44608      213.44608      0.00027691567  38897757     
    122400   0.19866238    -21.255623      0.29799044    -20.957633      0.0002836506   0.00031972896  0.00036167788  851.42983      212.85746      212.85746      0.00032168581  38576836     
    122500   0.19916643    -21.256844      0.29874651    -20.958097      0.00041800999  0.00033182391  0.00028992568  849.07533      212.26883      212.26883      0.00034658653  38257684     
    122600   0.19989664    -21.256781      0.2998418     -20.956939      0.00024928255  0.00025795995  0.00016499559  846.72082      211.68021      211.68021      0.00022407936  37940298     
    122700   0.2000723     -21.256915      0.30010529    -20.95681       0.00026978171  0.00032764441  0.00045759119  844.36632      211.09158      211.09158      0.00035167244  37624672     
    122800   0.19971279    -21.256733      0.29956604    -20.957167      0.00044843522  0.00034561521  0.00018840152  842.01182      210.50296      210.50296      0.00032748398  37310802     
    122900   0.20062906    -21.257897      0.30094043    -20.956957      0.00023683155  0.0004368504   0.00038953186  839.65732      209.91433      209.91433      0.0003544046   36998682     
    123000   0.20035351    -21.256665      0.3005271     -20.956138      0.0003447846   0.00029107897  0.00035399846  837.30282      209.3257       209.3257       0.00032995401  36688307     
    123100   0.20059919    -21.257197      0.30089563    -20.956302      0.00027165698  0.00031577576  0.00033870779  834.94832      208.73708      208.73708      0.00030871351  36379674     
    123200   0.19922707    -21.257702      0.29883747    -20.958865      0.00011013914  0.00020211274  0.00024132528  832.59381      208.14845      208.14845      0.00018452572  36072775     
    123300   0.1990232     -21.258045      0.29853166    -20.959513      0.00031341907  0.00031338725  0.00027111389  830.23931      207.55983      207.55983      0.00029930674  35767608     
    123400   0.19988233    -21.258291      0.29982034    -20.958471      0.00039479625  0.00031188235  0.0003745455   827.88481      206.9712       206.9712       0.00036040804  35464167     
    123500   0.20015679    -21.258297      0.30023204    -20.958065      0.00031902335  0.00036513831  0.00028708083  825.53031      206.38258      206.38258      0.00032374749  35162447     
    123600   0.20031052    -21.258701      0.30046263    -20.958239      0.00022203922  0.00029900119  0.00026491955  823.17581      205.79395      205.79395      0.00026198666  34862443     
    123700   0.20019481    -21.258765      0.30028906    -20.958476      0.0002217868   0.0002159364   0.00037504965  820.82131      205.20533      205.20533      0.00027092428  34564150     
    123800   0.19895479    -21.258573      0.29842905    -20.960144     -4.1810325e-06  0.00029751157  0.00011563534  818.4668       204.6167       204.6167       0.00013632196  34267564     
    123900   0.19921833    -21.259308      0.29882436    -20.960484      0.0001640107   0.00021136615  0.0002139795   816.1123       204.02808      204.02808      0.00019645211  33972679     
    124000   0.2000407     -21.258989      0.3000579     -20.958931      0.0003895301   0.00034754636  0.00034781331  813.7578       203.43945      203.43945      0.00036162992  33679490     
    124100   0.20051386    -21.259806      0.30076763    -20.959038      0.00025785337  0.0002981941   0.00033927036  811.4033       202.85082      202.85082      0.00029843928  33387994     
    124200   0.19953621    -21.259008      0.29930117    -20.959707      0.00019601482  0.00031365577  0.00029573514  809.0488       202.2622       202.2622       0.00026846858  33098184     
    124300   0.20028526    -21.260157      0.30042473    -20.959733      0.00027460099  0.00022630574  0.00042032229  806.6943       201.67357      201.67357      0.00030707634  32810056     
    124400   0.20063068    -21.259586      0.30094287    -20.958643      0.0003391971   0.000219484    0.00031292076  804.33979      201.08495      201.08495      0.00029053395  32523606     
    124500   0.20006587    -21.25925       0.30009566    -20.959155      0.00022183887  0.00035836144  0.00033838024  801.98529      200.49632      200.49632      0.00030619352  32238827     
    124600   0.19916315    -21.2604        0.29874159    -20.961659      6.3869106e-05  0.00014299448  0.00023306927  799.63079      199.9077       199.9077       0.00014664429  31955715     
    124700   0.19952804    -21.261383      0.29928892    -20.962094      0.00049740886  0.00041987988  0.00043425906  797.27629      199.31907      199.31907      0.00045051594  31674266     
    124800   0.1995261     -21.261         0.29928601    -20.961714      0.0003385002   0.00041488042  0.00029620429  794.92179      198.73045      198.73045      0.00034986164  31394475     
    124900   0.19956067    -21.260632      0.29933786    -20.961294      0.00035081479  0.00034787056  0.00063342203  792.56729      198.14182      198.14182      0.00044403579  31116335     
    125000   0.19987084    -21.260711      0.29980311    -20.960908      0.00041047094  0.00035823626  0.00039172246  790.21278      197.5532       197.5532       0.00038680989  30839844     
    125100   0.20019029    -21.26095       0.30028228    -20.960668      0.00040964284  0.00030890772  0.00017834452  787.85828      196.96457      196.96457      0.00029896503  30564995     
    125200   0.2001562     -21.261361      0.30023114    -20.96113       0.00028587763  0.00056054497  0.0003759489   785.50378      196.37595      196.37595      0.00040745717  30291784     
    125300   0.19871062    -21.261752      0.29806279    -20.963689      0.00048586814  0.00013628901  0.00034489444  783.14928      195.78732      195.78732      0.00032235053  30020207     
    125400   0.19907097    -21.26231       0.29860332    -20.963707      0.00048148494  0.00043743021  0.00039143047  780.79478      195.19869      195.19869      0.00043678187  29750257     
    125500   0.19999096    -21.262413      0.29998328    -20.962429      0.00041893154  0.0005190852   0.00062406966  778.44028      194.61007      194.61007      0.00052069546  29481930     
    125600   0.20029604    -21.262827      0.3004409     -20.962386      0.00032570589  0.00045734527  0.00034511668  776.08577      194.02144      194.02144      0.00037605595  29215222     
    125700   0.20018971    -21.26273       0.30028141    -20.962448      0.00021156298  0.00021869139  0.00030563886  773.73127      193.43282      193.43282      0.00024529774  28950127     
    125800   0.20005598    -21.261913      0.30008082    -20.961833      0.00034791595  0.00052156224  0.00035348564  771.37677      192.84419      192.84419      0.00040765461  28686640     
    125900   0.200879      -21.262672      0.30131534    -20.961357      0.00028434092  0.00039158948  0.00032848311  769.02227      192.25557      192.25557      0.0003348045   28424757     
    126000   0.20017095    -21.262909      0.30025327    -20.962656      0.00035347664  0.00043965631  0.00026385374  766.66777      191.66694      191.66694      0.0003523289   28164473     
    126100   0.19896591    -21.263411      0.29844572    -20.964965      0.0002527155   0.00058673824  0.00029142379  764.31327      191.07832      191.07832      0.00037695918  27905783     
    126200   0.19971511    -21.264153      0.29956951    -20.964584      0.0003588561   0.00048396837  0.00037978397  761.95876      190.48969      190.48969      0.00040753615  27648681     
    126300   0.20003999    -21.263737      0.30005683    -20.963681      0.00026136114  0.00038365295  0.00030133209  759.60426      189.90107      189.90107      0.00031544872  27393164     
    126400   0.19966617    -21.263274      0.29949611    -20.963778      0.00044221318  0.00042966764  0.00033016658  757.24976      189.31244      189.31244      0.00040068247  27139226     
    126500   0.20017391    -21.264168      0.30025772    -20.96391       0.00042346844  0.00045276874  0.00038260444  754.89526      188.72381      188.72381      0.00041961387  26886862     
    126600   0.20014283    -21.264274      0.30021109    -20.964063      0.00031637609  0.00056985657  0.00054047133  752.54076      188.13519      188.13519      0.000475568    26636067     
    126700   0.20044898    -21.264013      0.30067031    -20.963343      0.00052263675  0.00039634556  0.00051197177  750.18626      187.54656      187.54656      0.0004769847   26386837     
    126800   0.2006755     -21.264616      0.30101009    -20.963606      0.00035008015  0.00049218996  0.00051261167  747.83175      186.95794      186.95794      0.00045162726  26139166     
    126900   0.19964144    -21.265088      0.29945901    -20.965629      0.00051468238  0.0004722816   0.00056048421  745.47725      186.36931      186.36931      0.00051581606  25893050     
    127000   0.19921966    -21.265463      0.29882634    -20.966636      0.00021929467  0.00038360643  0.00041476218  743.12275      185.78069      185.78069      0.00033922109  25648483     
    127100   0.20023253    -21.265722      0.30034564    -20.965377      0.00047274867  0.00046694015  0.00048687546  740.76825      185.19206      185.19206      0.00047552142  25405462     
    127200   0.20006735    -21.265561      0.30009787    -20.965463      0.00054145897  0.00034591966  0.00037557743  738.41375      184.60344      184.60344      0.00042098535  25163980     
    127300   0.19961011    -21.265365      0.29941202    -20.965953      0.00033259747  0.00044482249  0.00030594134  736.05925      184.01481      184.01481      0.00036112044  24924034     
    127400   0.1998263     -21.265434      0.29973629    -20.965698      0.00057694616  0.00050294407  0.00055136171  733.70474      183.42619      183.42619      0.00054375064  24685618     
    127500   0.20043662    -21.26598       0.30065177    -20.965328      0.00041482199  0.00063330215  0.00035552875  731.35024      182.83756      182.83756      0.0004678843   24448727     
    127600   0.20033073    -21.266444      0.30049294    -20.965951      0.00033184044  0.00056644879  0.00034044402  728.99574      182.24894      182.24894      0.00041291108  24213356     
    127700   0.19908361    -21.266508      0.29862227    -20.967886      0.00055424377  0.00037552942  0.00052843058  726.64124      181.66031      181.66031      0.00048606792  23979501     
    127800   0.19918754    -21.267195      0.29877816    -20.968417      0.00046747707  0.00061868247  0.00033784558  724.28674      181.07168      181.07168      0.00047466837  23747157     
    127900   0.20001422    -21.266985      0.30001817    -20.966966      0.00024421724  0.00049676087  0.00040236437  721.93224      180.48306      180.48306      0.00038111416  23516318     
    128000   0.20055284    -21.26776       0.30082609    -20.966934      0.00055753841  0.00048218178  0.00055329974  719.57773      179.89443      179.89443      0.00053100664  23286980     
    128100   0.19969168    -21.267173      0.29953437    -20.967639      0.00022029865  0.00027881357  0.00023210697  717.22323      179.30581      179.30581      0.00024373973  23059138     
    128200   0.20005393    -21.267616      0.30007774    -20.967538      0.00048585653  0.00055623589  0.00041148665  714.86873      178.71718      178.71718      0.00048452636  22832787     
    128300   0.20059991    -21.267503      0.3008967     -20.966607      0.00038373457  0.00045718992  0.0004071617   712.51423      178.12856      178.12856      0.00041602873  22607922     
    128400   0.20040786    -21.26776       0.30060863    -20.967151      0.00032009206  0.00033799703  0.00024543049  710.15973      177.53993      177.53993      0.00030117319  22384538     
    128500   0.1993478     -21.268828      0.29901855    -20.969809      0.00039938128  0.00056250667  0.00055904319  707.80523      176.95131      176.95131      0.00050697705  22162631     
    128600   0.19884728    -21.268779      0.29826779    -20.970512      0.00064124549  0.00069939407  0.00062066956  705.45072      176.36268      176.36268      0.00065376971  21942195     
    128700   0.19926086    -21.268506      0.29888815    -20.969618      0.00037501401  0.00054190807  0.00061452288  703.09622      175.77406      175.77406      0.00051048165  21723226     
    128800   0.19981247    -21.268825      0.29971556    -20.969109      0.00067211043  0.00083362446  0.0003780163   700.74172      175.18543      175.18543      0.00062791706  21505718     
    128900   0.1999681     -21.268539      0.299949      -20.96859       0.00064049971  0.00047028508  0.00072818345  698.38722      174.5968       174.5968       0.00061298941  21289667     
    129000   0.20007986    -21.269381      0.30011664    -20.969264      0.00032734171  0.00067193688  0.00045941485  696.03272      174.00818      174.00818      0.00048623115  21075068     
    129100   0.19951473    -21.269476      0.29926896    -20.970207      0.00045683085  0.0003855368   0.00048465007  693.67822      173.41955      173.41955      0.00044233924  20861916     
    129200   0.20010901    -21.270137      0.30016037    -20.969977      0.00061309781  0.00044063169  0.00060118637  691.32371      172.83093      172.83093      0.00055163862  20650206     
    129300   0.20042248    -21.269714      0.30063057    -20.969083      0.00056533128  0.00032451003  0.00028335175  688.96921      172.2423       172.2423       0.00039106435  20439933     
    129400   0.19973263    -21.269254      0.29959579    -20.969658      0.00044312725  0.00048984847  0.00065141316  686.61471      171.65368      171.65368      0.00052812963  20231092     
    129500   0.19943414    -21.270249      0.29914806    -20.971101      0.00081007895  0.00058264372  0.00058771256  684.26021      171.06505      171.06505      0.00066014508  20023679     
    129600   0.19874995    -21.271112      0.29812179    -20.97299       0.00077473031  0.00055169328  0.00066508519  681.90571      170.47643      170.47643      0.00066383626  19817688     
    129700   0.19944808    -21.270831      0.29916898    -20.971662      0.00083849571  0.00078432514  0.0010543112   679.55121      169.8878       169.8878       0.00089237735  19613115     
    129800   0.20023501    -21.271418      0.30034936    -20.971069      0.00085738223  0.0006773174   0.00062028461  677.1967       169.29918      169.29918      0.00071832808  19409955     
    129900   0.20017321    -21.271466      0.30025666    -20.971209      0.00046796085  0.00068271925  0.000589206    674.8422       168.71055      168.71055      0.00057996203  19208202     
    130000   0.19998543    -21.271126      0.29997499    -20.971151      0.00096559377  0.00093422144  0.00076680756  672.4877       168.12193      168.12193      0.00088887426  19007853     
    130100   0.2009141     -21.272196      0.30136798    -20.970828      0.0008141998   0.0007133415   0.00082649326  670.1332       167.5333       167.5333       0.00078467819  18808901     
    130200   0.20041343    -21.272551      0.30061698    -20.971934      0.00061464088  0.00064235046  0.00085485452  667.7787       166.94467      166.94467      0.00070394862  18611342     
    130300   0.19909467    -21.272501      0.29863887    -20.973862      0.00060269633  0.00062656698  0.00093026741  665.4242       166.35605      166.35605      0.00071984358  18415172     
    130400   0.19984498    -21.273189      0.29976433    -20.973424      0.00063694019  0.00060059524  0.00041963629  663.06969      165.76742      165.76742      0.00055239057  18220385     
    130500   0.19997549    -21.272379      0.29996008    -20.972419      0.00067689489  0.00033631841  0.0007812411   660.71519      165.1788       165.1788       0.00059815147  18026977     
    130600   0.20041192    -21.273584      0.30061473    -20.972969      0.00038850943  0.00059124945  0.00049006731  658.36069      164.59017      164.59017      0.00048994206  17834942     
    130700   0.20019795    -21.273733      0.30029378    -20.973439      0.00073544795  0.00041682866  0.0007591995   656.00619      164.00155      164.00155      0.0006371587   17644275     
    130800   0.20044158    -21.273408      0.30065921    -20.972749      0.00086979741  0.0010149167   0.00058936113  653.65169      163.41292      163.41292      0.00082469175  17454973     
    130900   0.20060363    -21.273049      0.30090229    -20.972146      0.00088678239  0.00064423306  0.00087798634  651.29719      162.8243       162.8243       0.0008030006   17267029     
    131000   0.20008226    -21.273488      0.30012024    -20.973368      0.00033873252  0.0010075815   0.00058637993  648.94268      162.23567      162.23567      0.00064423132  17080439     
    131100   0.19897399    -21.2742        0.29845785    -20.975742      0.00065532563  0.00044497886  0.00038943315  646.58818      161.64705      161.64705      0.00049657921  16895199     
    131200   0.19928909    -21.274547      0.29893049    -20.975616      0.00049277521  0.00063776127  0.00069997672  644.23368      161.05842      161.05842      0.00061017107  16711302     
    131300   0.19983883    -21.274619      0.29975509    -20.974864      0.0009482041   0.00074333118  0.00089642771  641.87918      160.46979      160.46979      0.00086265433  16528745     
    131400   0.19975558    -21.274509      0.29963022    -20.974878      0.00062872311  0.00074208656  0.00071342082  639.52468      159.88117      159.88117      0.0006947435   16347522     
    131500   0.20011055    -21.274963      0.30016267    -20.9748        0.00070826597  0.0007351199   0.00090090886  637.17018      159.29254      159.29254      0.00078143158  16167629     
    131600   0.19973283    -21.27462       0.29959609    -20.975024      0.00075286112  0.00060992694  0.00059917397  634.81567      158.70392      158.70392      0.00065398734  15989060     
    131700   0.20066026    -21.275562      0.30098722    -20.974575      0.0006300399   0.00065833055  0.00068900965  632.46117      158.11529      158.11529      0.0006591267   15811811     
    131800   0.200927      -21.275928      0.30138734    -20.97454       0.00083493614  0.00074206503  0.00067073579  630.10667      157.52667      157.52667      0.00074924565  15635877     
    131900   0.19960567    -21.275735      0.29940535    -20.97633       0.00086212364  0.0013448805   0.0011922039   627.75217      156.93804      156.93804      0.0011330693   15461253     
    132000   0.19916418    -21.2765        0.29874314    -20.977757      0.0010342236   0.0010236021   0.0009172063   625.39767      156.34942      156.34942      0.00099167732  15287934     
    132100   0.19979545    -21.276434      0.29969003    -20.976744      0.0011491576   0.0013449717   0.0012608877   623.04317      155.76079      155.76079      0.0012516723   15115915     
    132200   0.20013301    -21.276759      0.30019636    -20.976563      0.0012746997   0.0011328531   0.0011713642   620.68866      155.17217      155.17217      0.0011929724   14945191     
    132300   0.19986519    -21.276933      0.29979463    -20.977138      0.00063118841  0.0010407023   0.0012177362   618.33416      154.58354      154.58354      0.00096320894  14775757     
    132400   0.2004758     -21.277491      0.30071054    -20.97678       0.00089338173  0.0010942484   0.0012156658   615.97966      153.99492      153.99492      0.0010677653   14607609     
    132500   0.20016142    -21.276555      0.30023897    -20.976316      0.0011481771   0.0010678961   0.00097390431  613.62516      153.40629      153.40629      0.0010633259   14440741     
    132600   0.20001891    -21.277617      0.30002522    -20.977591      0.00052014422  0.00097489656  0.00097015762  611.27066      152.81766      152.81766      0.0008217328   14275150     
    132700   0.19910342    -21.278321      0.29865199    -20.979669      0.0010633921   0.00090001956  0.00083444547  608.91616      152.22904      152.22904      0.00093261903  14110828     
    132800   0.19919456    -21.277872      0.2987887     -20.979083      0.0011387465   0.001144216    0.0012861431   606.56165      151.64041      151.64041      0.0011897019   13947773     
    132900   0.19956675    -21.277578      0.29934697    -20.978231      0.0015537431   0.0011202943   0.0012216743   604.20715      151.05179      151.05179      0.0012985706   13785979     
    133000   0.20031055    -21.27871       0.30046267    -20.978247      0.0013038102   0.00100053     0.0010878149   601.85265      150.46316      150.46316      0.0011307184   13625441     
    133100   0.20024418    -21.27897       0.30036312    -20.978607      0.00078115536  0.0012118442   0.0010802348   599.49815      149.87454      149.87454      0.0010244115   13466153     
    133200   0.20023506    -21.279006      0.30034943    -20.978657      0.0011220203   0.0011680715   0.00086369363  597.14365      149.28591      149.28591      0.0010512618   13308113     
    133300   0.20005545    -21.278607      0.30008002    -20.978527      0.0010069786   0.00072281335  0.0010438716   594.78915      148.69729      148.69729      0.00092455452  13151313     
    133400   0.20013039    -21.279617      0.30019242    -20.979424      0.00088966711  0.00031461161  0.00070763579  592.43464      148.10866      148.10866      0.00063730483  12995750     
    133500   0.19966507    -21.28015       0.29949446    -20.980656      0.0008003826   0.0010026436   0.00066025121  590.08014      147.52004      147.52004      0.00082109246  12841419     
    133600   0.19967888    -21.280494      0.29951517    -20.980979      0.0013365169   0.0010144152   0.001191088    587.72564      146.93141      146.93141      0.0011806734   12688314     
    133700   0.20011028    -21.279855      0.30016227    -20.979693      0.00085356534  0.0011414142   0.00087583497  585.37114      146.34278      146.34278      0.00095693816  12536432     
    133800   0.20021495    -21.28005       0.30031927    -20.979731      0.00092768641  0.0014375179   0.001020564    583.01664      145.75416      145.75416      0.0011285894   12385766     
    133900   0.19974411    -21.280559      0.29961302    -20.980946      0.00073765701  0.00082038779  0.00098139764  580.66214      145.16553      145.16553      0.00084648081  12236312     
    134000   0.19957953    -21.281491      0.29936615    -20.982125      0.00076743366  0.0012734426   0.00097419662  578.30763      144.57691      144.57691      0.0010050243   12088065     
    134100   0.20014415    -21.282244      0.30021307    -20.982031      0.00098933347  0.00087101492  0.0012141717   575.95313      143.98828      143.98828      0.00102484     11941021     
    134200   0.20041026    -21.281492      0.30061224    -20.98088       0.00098209795  0.0011878009   0.00087900769  573.59863      143.39966      143.39966      0.0010163022   11795174     
    134300   0.20025172    -21.281735      0.30037442    -20.98136       0.0013443729   0.00063124514  0.001338132    571.24413      142.81103      142.81103      0.0011045833   11650519     
    134400   0.19980018    -21.282775      0.29969713    -20.983078      0.0011956786   0.00084810485  0.00084178827  568.88963      142.22241      142.22241      0.00096185723  11507052     
    134500   0.19930446    -21.282726      0.29895355    -20.983773      0.00087307898  0.00076252963  0.00056150775  566.53513      141.63378      141.63378      0.00073237212  11364767     
    134600   0.20004968    -21.282163      0.30007137    -20.982091      0.0012251074   0.00098113065  0.0012709192   564.18062      141.04516      141.04516      0.0011590524   11223660     
    134700   0.20023083    -21.282812      0.30034309    -20.982469      0.0011450061   0.0013072638   0.00090865854  561.82612      140.45653      140.45653      0.0011203095   11083727     
    134800   0.19969522    -21.283347      0.29953968    -20.983807      0.0012020497   0.0011228138   0.0013792952   559.47162      139.86791      139.86791      0.0012347196   10944961     
    134900   0.19943394    -21.283624      0.29914777    -20.984476      0.0013176062   0.00075937438  0.00095082199  557.11712      139.27928      139.27928      0.0010092675   10807358     
    135000   0.20036942    -21.283605      0.30055097    -20.983054      0.0012326984   0.00091174139  0.00077348042  554.76262      138.69065      138.69065      0.00097264007  10670913     
    135100   0.20059742    -21.284135      0.30089296    -20.983242      0.0013029018   0.0014801306   0.00089175798  552.40812      138.10203      138.10203      0.0012249301   10535622     
    135200   0.19985227    -21.28437       0.29977526    -20.984595      0.0015173793   0.0015113528   0.0011606525   550.05361      137.5134       137.5134       0.0013964615   10401479     
    135300   0.20000759    -21.285061      0.30000823    -20.985052      0.001386625    0.0013974084   0.0012926928   547.69911      136.92478      136.92478      0.0013589087   10268479     
    135400   0.2006543     -21.28442       0.30097829    -20.983442      0.0012677031   0.0014847917   0.0013306406   545.34461      136.33615      136.33615      0.0013610451   10136618     
    135500   0.20039975    -21.284617      0.30059647    -20.984021      0.0012600157   0.0016297777   0.0011699056   542.99011      135.74753      135.74753      0.001353233    10005891     
    135600   0.19993099    -21.285152      0.29989333    -20.985259      0.0013840066   0.00094163524  0.001301528    540.63561      135.1589       135.1589       0.0012090566   9876292.8    
    135700   0.20004323    -21.285887      0.30006169    -20.985825      0.0012248295   0.0011699777   0.0014159594   538.28111      134.57028      134.57028      0.0012702555   9747818.3    
    135800   0.19971641    -21.285545      0.29957147    -20.985973      0.0011134436   0.0011775356   0.0013128487   535.9266       133.98165      133.98165      0.001201276    9620462.9    
    135900   0.20074782    -21.286096      0.30111856    -20.984977      0.0014171474   0.0013368665   0.0011992125   533.5721       133.39303      133.39303      0.0013177421   9494221.6    
    136000   0.20104142    -21.286508      0.30155897    -20.984949      0.0010732036   0.0012063902   0.0013294979   531.2176       132.8044       132.8044       0.0012030306   9369089.5    
    136100   0.19985623    -21.286837      0.29978119    -20.987056      0.0013905135   0.0015157924   0.001742197    528.8631       132.21577      132.21577      0.001549501    9245061.7    
    136200   0.1994828     -21.287538      0.29922106    -20.988317      0.0014098609   0.0015432684   0.0017198531   526.5086       131.62715      131.62715      0.0015576608   9122133.4    
    136300   0.19955855    -21.287446      0.29933468    -20.988111      0.0018099353   0.0016355204   0.0013909857   524.1541       131.03852      131.03852      0.0016121471   9000299.7    
    136400   0.19966381    -21.287498      0.29949257    -20.988005      0.001255718    0.0017859709   0.0017510516   521.79959      130.4499       130.4499       0.0015975801   8879555.6    
    136500   0.19992682    -21.287619      0.29988708    -20.987732      0.0017515017   0.0019030351   0.0017889975   519.44509      129.86127      129.86127      0.0018145114   8759896.2    
    136600   0.20002029    -21.287802      0.30002728    -20.987775      0.0021216474   0.0019654747   0.0019602475   517.09059      129.27265      129.27265      0.0020157898   8641316.7    
    136700   0.20026536    -21.287824      0.30039489    -20.98743       0.001901173    0.0020011417   0.0017941746   514.73609      128.68402      128.68402      0.0018988298   8523812.2    
    136800   0.20071049    -21.287818      0.30106257    -20.986755      0.0023526019   0.0023434938   0.0016000374   512.38159      128.0954       128.0954       0.002098711    8407377.8    
    136900   0.20047234    -21.289077      0.30070535    -20.988372      0.0016111872   0.0015210331   0.0018052602   510.02709      127.50677      127.50677      0.0016458268   8292008.5    
    137000   0.19978699    -21.28994       0.29967734    -20.990262      0.001726982    0.0017889368   0.0020612325   507.67258      126.91815      126.91815      0.0018590504   8177699.6    
    137100   0.19988219    -21.290081      0.29982013    -20.990261      0.0025385953   0.0018815057   0.0022716237   505.31808      126.32952      126.32952      0.0022305749   8064446      
    137200   0.20024914    -21.290017      0.30037055    -20.989647      0.0017164048   0.0024146543   0.0019373222   502.96358      125.7409       125.7409       0.0020227937   7952242.9    
    137300   0.20025697    -21.290265      0.30038229    -20.989883      0.0021212146   0.0019694879   0.0018827943   500.60908      125.15227      125.15227      0.0019911656   7841085.4    
    137400   0.20010019    -21.290445      0.30014713    -20.990298      0.0021322492   0.0015793846   0.0018544078   498.25458      124.56364      124.56364      0.0018553472   7730968.6    
    137500   0.19981433    -21.290735      0.29971835    -20.991016      0.0021271491   0.001640638    0.0019714058   495.90008      123.97502      123.97502      0.0019130643   7621887.7    
    137600   0.20025934    -21.291463      0.30038585    -20.991077      0.0022762885   0.0017641145   0.0020842067   493.54557      123.38639      123.38639      0.0020415365   7513837.6    
    137700   0.20118298    -21.290929      0.3017713     -20.989158      0.0023119717   0.0020824834   0.0020400539   491.19107      122.79777      122.79777      0.0021448364   7406813.6    
    137800   0.20130546    -21.290947      0.30195501    -20.988992      0.0028166605   0.0027769548   0.0026232784   488.83657      122.20914      122.20914      0.0027389645   7300810.7    
    137900   0.20036605    -21.291669      0.30054591    -20.991124      0.0020078589   0.0023123214   0.0020558217   486.48207      121.62052      121.62052      0.002125334    7195824      
    138000   0.19959099    -21.291953      0.29938334    -20.99257       0.0028043893   0.0023821926   0.0016839657   484.12757      121.03189      121.03189      0.0022901825   7091848.6    
    138100   0.1996585     -21.292341      0.2994846     -20.992857      0.0026845451   0.0027294167   0.0029351172   481.77307      120.44327      120.44327      0.0027830263   6988879.8    
    138200   0.20042051    -21.292458      0.30062761    -20.991831      0.0022257303   0.0018411395   0.002172417    479.41856      119.85464      119.85464      0.0020797623   6886912.4    
    138300   0.20041528    -21.292586      0.30061975    -20.991967      0.0021776381   0.0023297637   0.0015098695   477.06406      119.26602      119.26602      0.0020057571   6785941.7    
    138400   0.19936404    -21.293291      0.29904291    -20.994248      0.0014083936   0.0014385088   0.0021359873   474.70956      118.67739      118.67739      0.0016609633   6685962.8    
    138500   0.19886456    -21.293685      0.2982937     -20.995392      0.0022103011   0.0019491062   0.0015678022   472.35506      118.08876      118.08876      0.0019090699   6586970.7    
    138600   0.19959983    -21.293684      0.2993966     -20.994288      0.0016932063   0.0021679962   0.0022673002   470.00056      117.50014      117.50014      0.0020428342   6488960.6    
    138700   0.20024247    -21.294282      0.30036055    -20.993922      0.0025269254   0.0023070074   0.0023314662   467.64606      116.91151      116.91151      0.0023884663   6391927.6    
    138800   0.20004477    -21.293972      0.300064      -20.993908      0.0030620177   0.0025028831   0.0022281855   465.29155      116.32289      116.32289      0.0025976954   6295866.7    
    138900   0.20053941    -21.294843      0.30080596    -20.994037      0.0029769309   0.0023921847   0.0030845911   462.93705      115.73426      115.73426      0.0028179022   6200773.2    
    139000   0.20050711    -21.294982      0.30075751    -20.994224      0.0031326353   0.0030561659   0.0034274801   460.58255      115.14564      115.14564      0.0032054271   6106642      
    139100   0.19958688    -21.295375      0.29937717    -20.995998      0.0031192303   0.0032295498   0.0030600983   458.22805      114.55701      114.55701      0.0031362928   6013468.3    
    139200   0.1993046     -21.295684      0.29895375    -20.996731      0.0027646263   0.0027044861   0.0028747119   455.87355      113.96839      113.96839      0.0027812747   5921247.3    
    139300   0.20050626    -21.296074      0.30075623    -20.995318      0.0028720727   0.0025382036   0.0030528396   453.51905      113.37976      113.37976      0.0028210386   5829973.9    
    139400   0.20027902    -21.295563      0.30041537    -20.995147      0.0023241693   0.0020579039   0.0028507798   451.16454      112.79114      112.79114      0.002410951    5739643.3    
    139500   0.2002809     -21.296477      0.3004182     -20.996059      0.002339679    0.0031496803   0.002230984    448.81004      112.20251      112.20251      0.0025734478   5650250.7    
    139600   0.19938821    -21.296672      0.29907917    -20.997592      0.0028886554   0.0027109023   0.0019449826   446.45554      111.61389      111.61389      0.0025148468   5561791.1    
    139700   0.19962897    -21.297016      0.29944031    -20.997575      0.002824903    0.0034451688   0.0028805338   444.10104      111.02526      111.02526      0.0030502019   5474259.6    
    139800   0.20083145    -21.296857      0.301244      -20.995613      0.0029243297   0.003319329    0.0028934179   441.74654      110.43663      110.43663      0.0030456922   5387651.3    
    139900   0.20022691    -21.297397      0.30033721    -20.99706       0.0026034562   0.0034187326   0.002834898    439.39204      109.84801      109.84801      0.0029523623   5301961.4    
    140000   0.19944412    -21.297536      0.29916304    -20.998373      0.0028039765   0.0034465282   0.0027167948   437.03753      109.25938      109.25938      0.0029890998   5217184.9    
    140100   0.20002383    -21.298211      0.30003259    -20.998179      0.0032984415   0.0033013944   0.0037215726   434.68303      108.67076      108.67076      0.0034404695   5133317      
    140200   0.20024551    -21.297843      0.30036511    -20.997478      0.0033801943   0.0035244314   0.0031882545   432.32853      108.08213      108.08213      0.0033642934   5050352.7    
    140300   0.20085105    -21.298251      0.30127341    -20.996977      0.0031475958   0.002703749    0.002893901    429.97403      107.49351      107.49351      0.0029150819   4968287.2    
    140400   0.20045021    -21.298157      0.30067215    -20.997485      0.0030912689   0.0035351238   0.0028571049   427.61953      106.90488      106.90488      0.0031611659   4887115.5    
    140500   0.19984438    -21.299224      0.29976341    -20.99946       0.0028778024   0.0031745724   0.0033689285   425.26503      106.31626      106.31626      0.0031404345   4806832.9    
    140600   0.1994472     -21.299643      0.29916766    -21.000476      0.0034767986   0.0034098339   0.002491059    422.91052      105.72763      105.72763      0.0031258972   4727434.2    
    140700   0.19995158    -21.299552      0.29992422    -20.999628      0.0034765802   0.0033462029   0.0037769767   420.55602      105.13901      105.13901      0.0035332532   4648914.8    
    140800   0.20080172    -21.300132      0.30119941    -20.998933      0.0034363282   0.0030283706   0.003699342    418.20152      104.55038      104.55038      0.0033880136   4571269.7    
    140900   0.20034136    -21.300422      0.30050888    -20.999913      0.0040472385   0.0043985087   0.0034820244   415.84702      103.96175      103.96175      0.0039759239   4494493.9    
    141000   0.1997575     -21.300619      0.29963311    -21.000985      0.0041098795   0.00428279     0.0039993244   413.49252      103.37313      103.37313      0.0041306646   4418582.7    
    141100   0.20003836    -21.301177      0.30005439    -21.001122      0.0032255262   0.0041655502   0.003141561    411.13802      102.7845       102.7845       0.0035108792   4343531      
    141200   0.20019362    -21.301089      0.30028728    -21.000801      0.0041031848   0.0038813578   0.0032617654   408.78351      102.19588      102.19588      0.0037487693   4269334.1    
    141300   0.20007858    -21.301019      0.30011471    -21.000905      0.0036910803   0.0044120391   0.0035005103   406.42901      101.60725      101.60725      0.0038678766   4195986.9    
    141400   0.19966062    -21.301636      0.29948778    -21.002149      0.0030840479   0.0035059094   0.0042324178   404.07451      101.01863      101.01863      0.0036074583   4123484.7    
    141500   0.19923482    -21.302276      0.29884909    -21.003427      0.0043630784   0.0051621288   0.0045172411   401.72001      100.43         100.43         0.0046808161   4051822.5    
    141600   0.19999838    -21.302549      0.29999442    -21.002555      0.0043957      0.0044197096   0.0036775057   399.36551      99.841377      99.841377      0.0041643051   3980995.4    
    141700   0.20059072    -21.302297      0.30088291    -21.001414      0.002685622    0.0036519208   0.0045269359   397.01101      99.252752      99.252752      0.0036214929   3910998.6    
    141800   0.20045004    -21.302771      0.3006719     -21.002099      0.0041825758   0.0045921718   0.0040880884   394.6565       98.664126      98.664126      0.004287612    3841827.1    
    141900   0.20010617    -21.303188      0.3001561     -21.003032      0.0044511629   0.0047343352   0.0046358639   392.302        98.075501      98.075501      0.0046071207   3773476      
    142000   0.20009831    -21.303943      0.30014431    -21.003799      0.0049255397   0.0050853444   0.0056352811   389.9475       97.486875      97.486875      0.0052153884   3705940.5    
    142100   0.19964407    -21.303907      0.29946296    -21.004444      0.0046490023   0.0044471517   0.0048725539   387.593        96.89825       96.89825       0.004656236    3639215.6    
    142200   0.20014917    -21.304234      0.3002206     -21.004013      0.0045922921   0.0049338348   0.0060124735   385.2385       96.309625      96.309625      0.0051795335   3573296.6    
    142300   0.2008701     -21.303996      0.30130199    -21.002694      0.00412307     0.004306381    0.0055054091   382.884        95.720999      95.720999      0.0046449534   3508178.3    
    142400   0.20049051    -21.304535      0.3007326     -21.003802      0.0045940413   0.0044024074   0.0060610017   380.52949      95.132374      95.132374      0.0050191501   3443856.1    
    142500   0.19975637    -21.304882      0.2996314     -21.005251      0.0061758461   0.005327101    0.0049525182   378.17499      94.543748      94.543748      0.0054851551   3380324.9    
    142600   0.19985647    -21.305143      0.29978155    -21.005361      0.0054193589   0.0061108908   0.0054994521   375.82049      93.955123      93.955123      0.0056765672   3317579.9    
    142700   0.20041081    -21.305498      0.30061306    -21.004885      0.0071589218   0.0056313112   0.0064919185   373.46599      93.366497      93.366497      0.0064273839   3255616.1    
    142800   0.19994967    -21.305496      0.29992135    -21.005575      0.0050182359   0.006480186    0.0044708671   371.11149      92.777872      92.777872      0.0053230963   3194428.8    
    142900   0.19927389    -21.306157      0.2989077     -21.007249      0.0069785156   0.0062216302   0.0059286024   368.75699      92.189247      92.189247      0.0063762494   3134013      
    143000   0.19984301    -21.306443      0.29976137    -21.006682      0.0054957306   0.007302656    0.0072010325   366.40248      91.600621      91.600621      0.006666473    3074363.7    
    143100   0.20028178    -21.306271      0.30041951    -21.005852      0.0054487609   0.0060105154   0.005445296    364.04798      91.011996      91.011996      0.0056348574   3015476.2    
    143200   0.20123926    -21.306071      0.30185572    -21.004215      0.0055365975   0.0066012054   0.0066014627   361.69348      90.42337       90.42337       0.0062464219   2957345.5    
    143300   0.20047551    -21.306815      0.30071011    -21.006105      0.0063299756   0.005870321    0.0062871119   359.33898      89.834745      89.834745      0.0061624695   2899966.7    
    143400   0.20024769    -21.307424      0.30036837    -21.007056      0.0058413024   0.0057189628   0.0068681053   356.98448      89.24612       89.24612       0.0061427902   2843334.9    
    143500   0.20000298    -21.307507      0.30000132    -21.007506      0.0065617001   0.0078761671   0.006423874    354.62998      88.657494      88.657494      0.0069539137   2787445.3    
    143600   0.19989713    -21.307937      0.29984255    -21.008094      0.0079580336   0.006340554    0.006266056    352.27547      88.068869      88.068869      0.0068548812   2732292.8    
    143700   0.19999361    -21.308358      0.29998726    -21.008371      0.0078299907   0.0084937211   0.0066006661   349.92097      87.480243      87.480243      0.0076414593   2677872.8    
    143800   0.1993824     -21.308209      0.29907045    -21.009139      0.0077602988   0.0073441289   0.0082886969   347.56647      86.891618      86.891618      0.0077977082   2624180.1    
    143900   0.19944885    -21.3084        0.29917013    -21.009229      0.0066096026   0.0073172004   0.0061174179   345.21197      86.302992      86.302992      0.006681407    2571210      
    144000   0.20090794    -21.308616      0.30135874    -21.007257      0.006572895    0.0076157768   0.0087385123   342.85747      85.714367      85.714367      0.0076423947   2518957.6    
    144100   0.2011289     -21.308878      0.30169018    -21.007188      0.0072908148   0.0075740766   0.0068565654   340.50297      85.125742      85.125742      0.0072404856   2467417.9    
    144200   0.2001477     -21.30903       0.30021839    -21.008812      0.0075498144   0.006906671    0.0094057705   338.14846      84.537116      84.537116      0.0079540853   2416586.1    
    144300   0.20051424    -21.309993      0.30076819    -21.009225      0.010975281    0.010761598    0.0094900302   335.79396      83.948491      83.948491      0.01040897     2366457.3    
    144400   0.20046733    -21.310387      0.30069784    -21.009689      0.0098121606   0.010595919    0.0094926687   333.43946      83.359865      83.359865      0.009966916    2317026.5    
    144500   0.2000062     -21.310174      0.30000614    -21.010168      0.0094086693   0.0084690177   0.0078303365   331.08496      82.77124       82.77124       0.0085693412   2268288.9    
    144600   0.20027185    -21.310261      0.30040461    -21.009856      0.0091018343   0.0093559911   0.0085991987   328.73046      82.182615      82.182615      0.009019008    2220239.6    
    144700   0.20000496    -21.310232      0.30000429    -21.010227      0.0088172389   0.010166591    0.00930252     326.37596      81.593989      81.593989      0.0094287832   2172873.7    
    144800   0.19959221    -21.310506      0.29938516    -21.011121      0.0099436888   0.010411259    0.0086630851   324.02145      81.005364      81.005364      0.0096726776   2126186.3    
    144900   0.2003503     -21.311018      0.3005223     -21.010496      0.010695212    0.008288388    0.0089617539   321.66695      80.416738      80.416738      0.009315118    2080172.5    
    145000   0.2004129     -21.310844      0.30061619    -21.010228      0.01051029     0.010974456    0.012482575    319.31245      79.828113      79.828113      0.01132244     2034827.4    
    145100   0.20014694    -21.31094       0.30021725    -21.010723      0.010598113    0.012651567    0.011730058    316.95795      79.239487      79.239487      0.011659913    1990146.1    
    145200   0.2003009     -21.310965      0.3004482     -21.010517      0.012107949    0.012681243    0.011223813    314.60345      78.650862      78.650862      0.012004335    1946123.7    
    145300   0.20070322    -21.311354      0.30105167    -21.010302      0.012825951    0.011886944    0.012201758    312.24895      78.062237      78.062237      0.012304884    1902755.4    
    145400   0.20041507    -21.311224      0.30061945    -21.010605      0.012412303    0.013253398    0.014585348    309.89444      77.473611      77.473611      0.013417016    1860036.2    
    145500   0.20074664    -21.311253      0.30111679    -21.010136      0.014711224    0.015043409    0.014502691    307.53994      76.884986      76.884986      0.014752441    1817961.2    
    145600   0.2004085     -21.310819      0.3006096     -21.010209      0.013606614    0.012676742    0.013758665    305.18544      76.29636       76.29636       0.01334734     1776525.5    
    145700   0.20099398    -21.311455      0.30148781    -21.009967      0.012880989    0.015024776    0.013253873    302.83094      75.707735      75.707735      0.013719879    1735724.3    
    145800   0.20114842    -21.311899      0.30171947    -21.010179      0.014916059    0.016018855    0.016731634    300.47644      75.11911       75.11911       0.015888849    1695552.7    
    145900   0.20071033    -21.311742      0.30106232    -21.010679      0.016469306    0.016990407    0.015576834    298.12194      74.530484      74.530484      0.016345515    1656005.7    
    146000   0.20067028    -21.311875      0.30100225    -21.010873      0.017013882    0.01593421     0.016186082    295.76743      73.941859      73.941859      0.016378058    1617078.4    
    146100   0.20072764    -21.311982      0.3010883     -21.010893      0.017019264    0.014774811    0.01739255     293.41293      73.353233      73.353233      0.016395541    1578766      
    146200   0.2008165     -21.312055      0.30122158    -21.010834      0.015579883    0.018671267    0.015363622    291.05843      72.764608      72.764608      0.016538257    1541063.6    
    146300   0.20080489    -21.31191       0.30120418    -21.010706      0.015217761    0.015359998    0.016218776    288.70393      72.175982      72.175982      0.015598845    1503966.3    
    146400   0.20064423    -21.311613      0.30096319    -21.01065       0.015656794    0.016330802    0.017033908    286.34943      71.587357      71.587357      0.016340501    1467469.1    
    146500   0.20090336    -21.311782      0.30135188    -21.01043       0.018674789    0.019928757    0.018282031    283.99493      70.998732      70.998732      0.018961859    1431567.3    
    146600   0.20098418    -21.311644      0.30147311    -21.010171      0.021971373    0.023601238    0.022389537    281.64042      70.410106      70.410106      0.022654049    1396255.8    
    146700   0.2009425     -21.311347      0.30141058    -21.009936      0.021008636    0.022591819    0.022701161    279.28592      69.821481      69.821481      0.022100538    1361529.8    
    146800   0.20106986    -21.310782      0.30160163    -21.00918       0.021957095    0.025231201    0.023059538    276.93142      69.232855      69.232855      0.023415945    1327384.4    
    146900   0.20107674    -21.310331      0.30161194    -21.008719      0.025275241    0.021728656    0.022581814    274.57692      68.64423       68.64423       0.023195237    1293814.8    
    147000   0.20176279    -21.31087       0.30264101    -21.008229      0.025496988    0.02584804     0.025404583    272.22242      68.055605      68.055605      0.025583204    1260815.9    
    147100   0.20157135    -21.31049       0.30235385    -21.008136      0.027751341    0.025247993    0.023894953    269.86792      67.466979      67.466979      0.025631429    1228383      
    147200   0.20134687    -21.309791      0.30201713    -21.007774      0.026290561    0.026015176    0.028975684    267.51341      66.878354      66.878354      0.027093807    1196511      
    147300   0.20203595    -21.310276      0.30305075    -21.007225      0.028999774    0.031313622    0.02833718     265.15891      66.289728      66.289728      0.029550192    1165195.3    
    147400   0.20178811    -21.309702      0.30267898    -21.007023      0.02834248     0.02912235     0.028920613    262.80441      65.701103      65.701103      0.028795148    1134430.7    
    147500   0.20181179    -21.308996      0.3027145     -21.006281      0.034068859    0.03252484     0.033511632    260.44991      65.112477      65.112477      0.033368443    1104212.5    
    147600   0.20178821    -21.307998      0.30267914    -21.005319      0.027251275    0.032123922    0.034906061    258.09541      64.523852      64.523852      0.031427086    1074535.7    
    147700   0.20190141    -21.307456      0.30284894    -21.004607      0.033036043    0.032423596    0.03288013     255.74091      63.935227      63.935227      0.032779923    1045395.5    
    147800   0.20225893    -21.306786      0.3033852     -21.003401      0.032341273    0.037039872    0.036232596    253.3864       63.346601      63.346601      0.03520458     1016786.9    
    147900   0.20259699    -21.306013      0.30389229    -21.002121      0.037751924    0.037244348    0.042473617    251.0319       62.757976      62.757976      0.03915663     988705.1     
    148000   0.20247427    -21.305071      0.30370822    -21.001363      0.03975911     0.039165985    0.037371127    248.6774       62.16935       62.16935       0.038765408    961145.15    
    148100   0.20277961    -21.304097      0.30416622    -20.999931      0.045886013    0.044703635    0.048005868    246.3229       61.580725      61.580725      0.046198505    934102.17    
    148200   0.20295343    -21.30289       0.30442695    -20.998463      0.042834695    0.042644262    0.044303653    243.9684       60.992099      60.992099      0.04326087     907571.27    
    148300   0.20355806    -21.302435      0.30533388    -20.997101      0.050310275    0.046178079    0.047774612    241.6139       60.403474      60.403474      0.048087655    881547.55    
    148400   0.20352038    -21.300324      0.30527736    -20.995047      0.056072141    0.053836575    0.049538811    239.25939      59.814849      59.814849      0.053149176    856026.12    
    148500   0.2041061     -21.299323      0.30615593    -20.993167      0.052957129    0.054127922    0.055118235    236.90489      59.226223      59.226223      0.054067762    831002.08    
    148600   0.20384533    -21.297081      0.30576478    -20.991316      0.063562633    0.065213369    0.060601288    234.55039      58.637598      58.637598      0.063125763    806470.53    
    148700   0.20445779    -21.294945      0.30668347    -20.988261      0.067439114    0.067333038    0.067649265    232.19589      58.048972      58.048972      0.067473806    782426.59    
    148800   0.20488305    -21.293104      0.30732135    -20.985783      0.068556772    0.067293313    0.068643581    229.84139      57.460347      57.460347      0.068164555    758865.35    
    148900   0.20520687    -21.290431      0.30780707    -20.982624      0.072811258    0.077514503    0.072374313    227.48689      56.871722      56.871722      0.074233358    735781.93    
    149000   0.20605082    -21.288259      0.30907298    -20.979186      0.081708725    0.076287428    0.075652015    225.13238      56.283096      56.283096      0.077882723    713171.42    
    149100   0.20658414    -21.285797      0.30987295    -20.975924      0.081149375    0.085870328    0.082177725    222.77788      55.694471      55.694471      0.083065809    691028.94    
    149200   0.20687868    -21.281873      0.31031476    -20.971559      0.093705261    0.093406767    0.095057075    220.42338      55.105845      55.105845      0.094056368    669349.58    
    149300   0.20748338    -21.277959      0.31122181    -20.966737      0.10477023     0.102301       0.10277705     218.06888      54.51722       54.51722       0.10328276     648128.46    
    149400   0.20794852    -21.273239      0.31191951    -20.961319      0.11963767     0.11663341     0.11571457     215.71438      53.928594      53.928594      0.11732855     627360.68    
    149500   0.20919664    -21.268572      0.31379167    -20.954781      0.1270573      0.12135946     0.12430606     213.35988      53.339969      53.339969      0.12424094     607041.34    
    149600   0.21004538    -21.263039      0.31506476    -20.947974      0.13310625     0.13223832     0.1285868      211.00537      52.751344      52.751344      0.13131046     587165.55    
    149700   0.21115283    -21.256761      0.31672592    -20.940035      0.14333845     0.15226661     0.14834989     208.65087      52.162718      52.162718      0.14798498     567728.42    
    149800   0.21241147    -21.249956      0.31861385    -20.931342      0.15984742     0.15401645     0.15948913     206.29637      51.574093      51.574093      0.15778434     548725.05    
    149900   0.21356296    -21.241832      0.32034107    -20.921491      0.17604162     0.17636176     0.17516532     203.94187      50.985467      50.985467      0.17585623     530150.54    
    150000   0.21516541    -21.232541      0.32274472    -20.909796      0.19693485     0.19210485     0.1943999      201.58737      50.396842      50.396842      0.19447987     512000       
Loop time of 652.466 on 1 procs for 50000 steps with 95168 atoms

Performance: 6621.037 tau/day, 76.632 timesteps/s, 7.293 Matom-step/s
100.0% CPU use with 1 MPI tasks x 1 OpenMP threads

MPI task timing breakdown:
Section |  min time  |  avg time  |  max time  |%varavg| %total
---------------------------------------------------------------
Pair    | 374.56     | 374.56     | 374.56     |   0.0 | 57.41
Neigh   | 146.11     | 146.11     | 146.11     |   0.0 | 22.39
Comm    | 7.3338     | 7.3338     | 7.3338     |   0.0 |  1.12
Output  | 0.34842    | 0.34842    | 0.34842    |   0.0 |  0.05
Modify  | 103.55     | 103.55     | 103.55     |   0.0 | 15.87
Other   |            | 20.56      |            |       |  3.15

Nlocal:          95168 ave       95168 max       95168 min
Histogram: 1 0 0 0 0 0 0 0 0 0
Nghost:          22269 ave       22269 max       22269 min
Histogram: 1 0 0 0 0 0 0 0 0 0
Neighs:    1.14746e+06 ave 1.14746e+06 max 1.14746e+06 min
Histogram: 1 0 0 0 0 0 0 0 0 0

Total # of neighbors = 1147458
Ave neighs/atom = 12.057183
Neighbor list builds = 3848
Dangerous builds = 0
unfix           2

#write_data      s0.data
############cooling#######################################################
variable        ct equal 0.04

unfix           1
fix             1 all nvt temp ${tf} ${ct} 0.1 #cooling
fix             1 all nvt temp 0.2 ${ct} 0.1 
fix             1 all nvt temp 0.2 0.04 0.1 
run             20000#test!0
Generated 0 of 36 mixed pair_coeff terms from geometric mixing rule
Per MPI rank memory allocation (min/avg/max) = 203.4 | 203.4 | 203.4 Mbytes
   Step          Temp          PotEng         KinEng         TotEng          Pxx            Pyy            Pzz             Lx             Ly             Lz           Press          Volume    
    150000   0.21516541    -21.23223       0.32274472    -20.909486      0.21813381     0.21246669     0.21493193     201.58737      50.396842      50.396842      0.21517748     512000       
    150100   0.21542927    -21.240897      0.32314051    -20.917757      0.13596196     0.10468083     0.1080345      201.58737      50.396842      50.396842      0.11622576     512000       
    150200   0.21223253    -21.248596      0.31834546    -20.93025       0.18894512     0.20075        0.19807648     201.58737      50.396842      50.396842      0.19592386     512000       
    150300   0.2054936     -21.250622      0.30823717    -20.942385      0.1477373      0.14387219     0.13935801     201.58737      50.396842      50.396842      0.14365583     512000       
    150400   0.20053915    -21.253322      0.30080557    -20.952517      0.15740495     0.1471343      0.14565172     201.58737      50.396842      50.396842      0.15006366     512000       
    150500   0.19685282    -21.255488      0.29527613    -20.960212      0.15185159     0.15045182     0.15184839     201.58737      50.396842      50.396842      0.15138393     512000       
    150600   0.19466023    -21.257198      0.29198728    -20.965211      0.14157112     0.1407108      0.14487104     201.58737      50.396842      50.396842      0.14238432     512000       
    150700   0.19343614    -21.257553      0.29015116    -20.967402      0.1486553      0.1539233      0.15178894     201.58737      50.396842      50.396842      0.15145584     512000       
    150800   0.1938371     -21.257503      0.29075259    -20.966751      0.14375975     0.14359836     0.14281963     201.58737      50.396842      50.396842      0.14339258     512000       
    150900   0.19340301    -21.256301      0.29010147    -20.9662        0.14036653     0.141306       0.14122079     201.58737      50.396842      50.396842      0.14096444     512000       
    151000   0.19275839    -21.256864      0.28913455    -20.967729      0.14967921     0.14893081     0.14479319     201.58737      50.396842      50.396842      0.14780107     512000       
    151100   0.19108953    -21.257433      0.28663128    -20.970802      0.140035       0.13909451     0.14442238     201.58737      50.396842      50.396842      0.14118396     512000       
    151200   0.18980715    -21.257618      0.28470773    -20.97291       0.14775841     0.14765043     0.13768469     201.58737      50.396842      50.396842      0.14436451     512000       
    151300   0.1894713     -21.257351      0.28420396    -20.973147      0.14292866     0.14014056     0.14342579     201.58737      50.396842      50.396842      0.142165       512000       
    151400   0.18914698    -21.256482      0.28371749    -20.972764      0.14971446     0.14795944     0.14581442     201.58737      50.396842      50.396842      0.14782944     512000       
    151500   0.18878646    -21.256867      0.28317672    -20.97369       0.15061484     0.14749411     0.14418539     201.58737      50.396842      50.396842      0.14743145     512000       
    151600   0.18687745    -21.256478      0.28031324    -20.976164      0.14612854     0.14228301     0.14690355     201.58737      50.396842      50.396842      0.14510503     512000       
    151700   0.18612303    -21.256922      0.27918161    -20.97774       0.14531558     0.14726716     0.14290322     201.58737      50.396842      50.396842      0.14516199     512000       
    151800   0.1859067     -21.257431      0.27885712    -20.978574      0.14253839     0.1449643      0.14849385     201.58737      50.396842      50.396842      0.14533218     512000       
    151900   0.1852458     -21.258104      0.27786578    -20.980239      0.14842742     0.14179591     0.14192505     201.58737      50.396842      50.396842      0.14404946     512000       
    152000   0.18387385    -21.258324      0.27580787    -20.982516      0.13816318     0.13611713     0.14303222     201.58737      50.396842      50.396842      0.13910418     512000       
    152100   0.18340242    -21.259424      0.27510073    -20.984324      0.14086265     0.14253854     0.14492291     201.58737      50.396842      50.396842      0.1427747      512000       
    152200   0.18211048    -21.259413      0.27316285    -20.98625       0.14570865     0.13976414     0.14461206     201.58737      50.396842      50.396842      0.14336162     512000       
    152300   0.18130595    -21.259144      0.27195607    -20.987188      0.13661326     0.14849593     0.13874331     201.58737      50.396842      50.396842      0.14128417     512000       
    152400   0.18136329    -21.259483      0.27204208    -20.98744       0.14587608     0.14133377     0.14627544     201.58737      50.396842      50.396842      0.1444951      512000       
    152500   0.1801553     -21.259126      0.27023011    -20.988896      0.1412537      0.14156837     0.14177428     201.58737      50.396842      50.396842      0.14153212     512000       
    152600   0.17919349    -21.259397      0.26878742    -20.99061       0.13988915     0.13827768     0.13819071     201.58737      50.396842      50.396842      0.13878584     512000       
    152700   0.17893012    -21.260765      0.26839237    -20.992373      0.13881671     0.13369604     0.13829189     201.58737      50.396842      50.396842      0.13693488     512000       
    152800   0.17752104    -21.261101      0.26627876    -20.994822      0.13934732     0.13800121     0.14301792     201.58737      50.396842      50.396842      0.14012215     512000       
    152900   0.17664501    -21.261631      0.26496474    -20.996666      0.1389285      0.13704426     0.13127144     201.58737      50.396842      50.396842      0.13574807     512000       
    153000   0.17624599    -21.262313      0.26436621    -20.997947      0.13533553     0.14229845     0.13697429     201.58737      50.396842      50.396842      0.13820275     512000       
    153100   0.17523202    -21.262319      0.26284527    -20.999473      0.13949885     0.13746859     0.13771299     201.58737      50.396842      50.396842      0.13822681     512000       
    153200   0.17454586    -21.262782      0.26181604    -21.000966      0.1393482      0.13354093     0.13565256     201.58737      50.396842      50.396842      0.13618056     512000       
    153300   0.17388121    -21.263432      0.26081907    -21.002613      0.14031201     0.13514297     0.13435854     201.58737      50.396842      50.396842      0.13660451     512000       
    153400   0.17267906    -21.263461      0.25901587    -21.004445      0.13425129     0.13674216     0.13784695     201.58737      50.396842      50.396842      0.13628013     512000       
    153500   0.17181396    -21.263458      0.25771823    -21.00574       0.13809496     0.13117825     0.13736527     201.58737      50.396842      50.396842      0.13554616     512000       
    153600   0.17161602    -21.26412       0.25742132    -21.006699      0.13017298     0.13276785     0.13095968     201.58737      50.396842      50.396842      0.13130017     512000       
    153700   0.17079754    -21.264584      0.25619362    -21.008391      0.13628328     0.13560945     0.13875905     201.58737      50.396842      50.396842      0.13688392     512000       
    153800   0.16961706    -21.26476       0.25442291    -21.010337      0.13593275     0.12949411     0.13042766     201.58737      50.396842      50.396842      0.13195151     512000       
    153900   0.16889177    -21.265142      0.25333499    -21.011808      0.13099152     0.13379904     0.13231371     201.58737      50.396842      50.396842      0.13236809     512000       
    154000   0.16824353    -21.265604      0.25236265    -21.013241      0.13689246     0.13694268     0.13662313     201.58737      50.396842      50.396842      0.13681943     512000       
    154100   0.16708919    -21.265737      0.25063115    -21.015105      0.12935613     0.13013372     0.13141079     201.58737      50.396842      50.396842      0.13030022     512000       
    154200   0.16624622    -21.265525      0.24936671    -21.016158      0.12705811     0.12954956     0.13220039     201.58737      50.396842      50.396842      0.12960268     512000       
    154300   0.16614892    -21.266276      0.24922076    -21.017055      0.12620243     0.12883137     0.12872928     201.58737      50.396842      50.396842      0.12792103     512000       
    154400   0.16507528    -21.266625      0.24761032    -21.019014      0.13007632     0.12738903     0.12308846     201.58737      50.396842      50.396842      0.12685127     512000       
    154500   0.16407605    -21.266914      0.24611149    -21.020802      0.12677423     0.1300503      0.12916232     201.58737      50.396842      50.396842      0.12866228     512000       
    154600   0.16298642    -21.266586      0.24447706    -21.022109      0.1294519      0.13285272     0.12746751     201.58737      50.396842      50.396842      0.12992404     512000       
    154700   0.16270017    -21.266891      0.24404769    -21.022843      0.12854009     0.12924445     0.13081499     201.58737      50.396842      50.396842      0.12953318     512000       
    154800   0.1619855     -21.266928      0.2429757     -21.023952      0.13110051     0.12314833     0.12541958     201.58737      50.396842      50.396842      0.12655614     512000       
    154900   0.16124347    -21.267253      0.24186267    -21.025391      0.12099746     0.12416265     0.12503285     201.58737      50.396842      50.396842      0.12339765     512000       
    155000   0.16060678    -21.267829      0.24090763    -21.026922      0.12752433     0.12591253     0.12569865     201.58737      50.396842      50.396842      0.1263785      512000       
    155100   0.15994538    -21.268413      0.23991554    -21.028498      0.12412693     0.12145265     0.12654427     201.58737      50.396842      50.396842      0.12404128     512000       
    155200   0.15890445    -21.268486      0.23835417    -21.030132      0.12728281     0.12734022     0.12901449     201.58737      50.396842      50.396842      0.12787917     512000       
    155300   0.15812216    -21.268719      0.23718075    -21.031538      0.12897154     0.12466274     0.12018056     201.58737      50.396842      50.396842      0.12460495     512000       
    155400   0.1573532     -21.26891       0.23602732    -21.032883      0.12392131     0.12646328     0.12337112     201.58737      50.396842      50.396842      0.12458524     512000       
    155500   0.15685692    -21.269624      0.23528291    -21.034341      0.12471314     0.12339252     0.12020526     201.58737      50.396842      50.396842      0.12277031     512000       
    155600   0.15600068    -21.270012      0.23399857    -21.036013      0.12231028     0.12575274     0.12706002     201.58737      50.396842      50.396842      0.12504101     512000       
    155700   0.15501677    -21.270161      0.23252271    -21.037638      0.12512747     0.11533824     0.12494252     201.58737      50.396842      50.396842      0.12180274     512000       
    155800   0.15400931    -21.270192      0.23101153    -21.039181      0.12402886     0.12199659     0.12935471     201.58737      50.396842      50.396842      0.12512672     512000       
    155900   0.15332415    -21.270716      0.22998381    -21.040732      0.11798201     0.1275939      0.11615589     201.58737      50.396842      50.396842      0.12057727     512000       
    156000   0.15265182    -21.271359      0.22897533    -21.042384      0.12234069     0.11877821     0.12322056     201.58737      50.396842      50.396842      0.12144649     512000       
    156100   0.15180044    -21.27179       0.22769827    -21.044091      0.11916491     0.12243838     0.11962158     201.58737      50.396842      50.396842      0.12040829     512000       
    156200   0.15089499    -21.272039      0.2263401     -21.045699      0.11865968     0.11851706     0.11897579     201.58737      50.396842      50.396842      0.11871751     512000       
    156300   0.15008278    -21.272247      0.2251218     -21.047125      0.11712554     0.11319732     0.11537917     201.58737      50.396842      50.396842      0.11523401     512000       
    156400   0.14930411    -21.272371      0.22395381    -21.048418      0.11659815     0.11219618     0.11912387     201.58737      50.396842      50.396842      0.11597274     512000       
    156500   0.14892595    -21.273367      0.22338658    -21.049981      0.1218474      0.11741624     0.12028286     201.58737      50.396842      50.396842      0.11984883     512000       
    156600   0.14795404    -21.273533      0.22192872    -21.051604      0.12027454     0.11920747     0.11864213     201.58737      50.396842      50.396842      0.11937472     512000       
    156700   0.14697636    -21.273712      0.22046223    -21.05325       0.1183104      0.11313235     0.11416474     201.58737      50.396842      50.396842      0.11520249     512000       
    156800   0.146296      -21.274274      0.2194417     -21.054832      0.11699204     0.11564718     0.10957529     201.58737      50.396842      50.396842      0.1140715      512000       
    156900   0.14559654    -21.274988      0.21839251    -21.056596      0.10900354     0.1067309      0.11434189     201.58737      50.396842      50.396842      0.11002544     512000       
    157000   0.14471689    -21.275449      0.21707305    -21.058376      0.11624637     0.11514729     0.11896393     201.58737      50.396842      50.396842      0.11678586     512000       
    157100   0.14365251    -21.275528      0.2154765     -21.060052      0.11423727     0.1156338      0.11340353     201.58737      50.396842      50.396842      0.11442487     512000       
    157200   0.14308153    -21.276166      0.21462005    -21.061545      0.11290033     0.11594126     0.11183818     201.58737      50.396842      50.396842      0.11355992     512000       
    157300   0.14215446    -21.276485      0.21322944    -21.063256      0.11757278     0.11400588     0.11245291     201.58737      50.396842      50.396842      0.11467719     512000       
    157400   0.14147014    -21.277018      0.21220297    -21.064815      0.1085532      0.11239849     0.11156207     201.58737      50.396842      50.396842      0.11083792     512000       
    157500   0.14074768    -21.277667      0.21111931    -21.066548      0.10917184     0.10889256     0.1123433      201.58737      50.396842      50.396842      0.1101359      512000       
    157600   0.13969284    -21.277686      0.20953706    -21.068149      0.10642852     0.11083219     0.10682166     201.58737      50.396842      50.396842      0.10802746     512000       
    157700   0.13905039    -21.278204      0.20857339    -21.069631      0.1080959      0.11273935     0.10838809     201.58737      50.396842      50.396842      0.10974111     512000       
    157800   0.13809007    -21.278263      0.20713292    -21.07113       0.11093086     0.10721514     0.11274148     201.58737      50.396842      50.396842      0.11029583     512000       
    157900   0.1374206     -21.278692      0.20612874    -21.072563      0.10957503     0.11054341     0.10788538     201.58737      50.396842      50.396842      0.10933461     512000       
    158000   0.13662406    -21.279025      0.20493394    -21.074092      0.11043287     0.10442405     0.11174879     201.58737      50.396842      50.396842      0.10886857     512000       
    158100   0.13590781    -21.279605      0.20385957    -21.075746      0.10908519     0.11315351     0.10100445     201.58737      50.396842      50.396842      0.10774772     512000       
    158200   0.13510351    -21.280014      0.20265314    -21.077361      0.11159535     0.10840885     0.1099112      201.58737      50.396842      50.396842      0.1099718      512000       
    158300   0.13444381    -21.280746      0.20166359    -21.079082      0.10826245     0.10448531     0.10187912     201.58737      50.396842      50.396842      0.10487563     512000       
    158400   0.13339071    -21.280794      0.20008397    -21.080711      0.1030607      0.10366429     0.10014411     201.58737      50.396842      50.396842      0.1022897      512000       
    158500   0.13246226    -21.280912      0.1986913     -21.08222       0.097699983    0.10689997     0.1018729      201.58737      50.396842      50.396842      0.10215762     512000       
    158600   0.13174496    -21.281295      0.19761537    -21.08368       0.10733274     0.1025724      0.10559372     201.58737      50.396842      50.396842      0.10516629     512000       
    158700   0.13124808    -21.282016      0.19687005    -21.085146      0.10418883     0.10214404     0.10372361     201.58737      50.396842      50.396842      0.10335216     512000       
    158800   0.13035971    -21.282366      0.1955375     -21.086829      0.10266397     0.098798362    0.098886337    201.58737      50.396842      50.396842      0.10011622     512000       
    158900   0.129367      -21.282567      0.19404847    -21.088519      0.10197998     0.10015696     0.10007374     201.58737      50.396842      50.396842      0.10073689     512000       
    159000   0.12872923    -21.283369      0.19309182    -21.090277      0.10668197     0.098577836    0.10569399     201.58737      50.396842      50.396842      0.10365126     512000       
    159100   0.1281283     -21.284273      0.19219043    -21.092083      0.093662894    0.099874145    0.097205999    201.58737      50.396842      50.396842      0.096914346    512000       
    159200   0.12697254    -21.284363      0.19045681    -21.093906      0.10021251     0.097750738    0.097493442    201.58737      50.396842      50.396842      0.098485563    512000       
    159300   0.12586491    -21.284177      0.18879537    -21.095381      0.10212414     0.10208941     0.1028072      201.58737      50.396842      50.396842      0.10234025     512000       
    159400   0.12547077    -21.285081      0.18820418    -21.096877      0.097935776    0.10366329     0.10237735     201.58737      50.396842      50.396842      0.10132547     512000       
    159500   0.124796      -21.285786      0.18719203    -21.098594      0.099817072    0.092476915    0.093969269    201.58737      50.396842      50.396842      0.095421086    512000       
    159600   0.12375275    -21.285919      0.18562718    -21.100292      0.092543233    0.099983023    0.098685274    201.58737      50.396842      50.396842      0.09707051     512000       
    159700   0.12316044    -21.286744      0.18473873    -21.102005      0.09981408     0.096673558    0.098645794    201.58737      50.396842      50.396842      0.09837781     512000       
    159800   0.12205943    -21.286749      0.18308723    -21.103662      0.09096047     0.099631422    0.0913864      201.58737      50.396842      50.396842      0.093992764    512000       
    159900   0.12132284    -21.287196      0.18198235    -21.105213      0.09772011     0.093737091    0.093577275    201.58737      50.396842      50.396842      0.095011492    512000       
    160000   0.12094005    -21.288323      0.18140817    -21.106915      0.095311362    0.10010542     0.097676162    201.58737      50.396842      50.396842      0.09769765     512000       
    160100   0.12002627    -21.288796      0.18003751    -21.108758      0.096616373    0.091762023    0.091752216    201.58737      50.396842      50.396842      0.093376871    512000       
    160200   0.11904671    -21.289017      0.17856819    -21.110449      0.093800272    0.091239537    0.088434385    201.58737      50.396842      50.396842      0.091158064    512000       
    160300   0.11809246    -21.289185      0.17713683    -21.112048      0.092271651    0.095980007    0.096240364    201.58737      50.396842      50.396842      0.094830674    512000       
    160400   0.11718113    -21.289326      0.17576985    -21.113556      0.10017483     0.09393672     0.09478745     201.58737      50.396842      50.396842      0.096299666    512000       
    160500   0.11671323    -21.29018       0.17506801    -21.115112      0.095092943    0.10315061     0.098865482    201.58737      50.396842      50.396842      0.099036344    512000       
    160600   0.11587031    -21.290617      0.17380363    -21.116814      0.097760018    0.092558714    0.095932085    201.58737      50.396842      50.396842      0.095416939    512000       
    160700   0.11474104    -21.290415      0.17210976    -21.118305      0.087573111    0.093973451    0.089885242    201.58737      50.396842      50.396842      0.090477268    512000       
    160800   0.11435951    -21.291301      0.17153747    -21.119764      0.08892694     0.095041661    0.091398719    201.58737      50.396842      50.396842      0.091789107    512000       
    160900   0.11351356    -21.291787      0.17026856    -21.121518      0.090443116    0.093613808    0.088343231    201.58737      50.396842      50.396842      0.090800051    512000       
    161000   0.11263581    -21.29216       0.16895194    -21.123208      0.091642027    0.08519012     0.090704493    201.58737      50.396842      50.396842      0.08917888     512000       
    161100   0.11196851    -21.292821      0.16795101    -21.12487       0.092840478    0.092798645    0.097607711    201.58737      50.396842      50.396842      0.094415611    512000       
    161200   0.11107434    -21.293125      0.16660976    -21.126515      0.095141503    0.087545823    0.094413906    201.58737      50.396842      50.396842      0.092367077    512000       
    161300   0.11038763    -21.293772      0.1655797     -21.128193      0.087793277    0.087226108    0.092826321    201.58737      50.396842      50.396842      0.089281902    512000       
    161400   0.10937774    -21.293888      0.16406489    -21.129823      0.090581496    0.089728145    0.087411568    201.58737      50.396842      50.396842      0.089240403    512000       
    161500   0.10861944    -21.294291      0.16292745    -21.131364      0.087829836    0.09100375     0.090547781    201.58737      50.396842      50.396842      0.089793789    512000       
    161600   0.10809125    -21.295139      0.16213518    -21.133004      0.08904433     0.08967021     0.087042415    201.58737      50.396842      50.396842      0.088585652    512000       
    161700   0.10754379    -21.296158      0.16131399    -21.134844      0.080287796    0.092606476    0.085281663    201.58737      50.396842      50.396842      0.086058645    512000       
    161800   0.10630504    -21.296203      0.15945588    -21.136747      0.087496479    0.084210881    0.08494424     201.58737      50.396842      50.396842      0.085550533    512000       
    161900   0.10541381    -21.29659       0.15811905    -21.138471      0.081975133    0.085470644    0.089666706    201.58737      50.396842      50.396842      0.085704161    512000       
    162000   0.10484865    -21.297555      0.15727132    -21.140283      0.089837182    0.087951124    0.086201755    201.58737      50.396842      50.396842      0.087996687    512000       
    162100   0.10393312    -21.298064      0.15589804    -21.142166      0.08518608     0.084768944    0.085034933    201.58737      50.396842      50.396842      0.084996652    512000       
    162200   0.10309822    -21.298588      0.15464571    -21.143942      0.084506256    0.086777786    0.083292373    201.58737      50.396842      50.396842      0.084858805    512000       
    162300   0.10226566    -21.299085      0.15339687    -21.145688      0.086631128    0.090314006    0.083028176    201.58737      50.396842      50.396842      0.08665777     512000       
    162400   0.10146893    -21.299633      0.15220179    -21.147431      0.077174546    0.077002683    0.083323429    201.58737      50.396842      50.396842      0.079166886    512000       
    162500   0.10058402    -21.300036      0.15087445    -21.149161      0.079683298    0.080218076    0.077566201    201.58737      50.396842      50.396842      0.079155859    512000       
    162600   0.099684633   -21.300323      0.14952538    -21.150798      0.080082655    0.080744469    0.08287994     201.58737      50.396842      50.396842      0.081235688    512000       
    162700   0.098992492   -21.300935      0.14848718    -21.152447      0.074361021    0.076179169    0.074137089    201.58737      50.396842      50.396842      0.074892426    512000       
    162800   0.098200969   -21.301479      0.14729991    -21.154179      0.079166893    0.074941044    0.080662436    201.58737      50.396842      50.396842      0.078256791    512000       
    162900   0.097362399   -21.301824      0.14604206    -21.155782      0.075147404    0.077075526    0.079825043    201.58737      50.396842      50.396842      0.077349324    512000       
    163000   0.096814561   -21.302678      0.14522032    -21.157458      0.077376779    0.079675137    0.080349287    201.58737      50.396842      50.396842      0.079133734    512000       
    163100   0.095771357   -21.302856      0.14365553    -21.1592        0.07776015     0.080782313    0.079328206    201.58737      50.396842      50.396842      0.079290223    512000       
    163200   0.094984861   -21.303292      0.14247579    -21.160816      0.082844996    0.081478413    0.083991892    201.58737      50.396842      50.396842      0.082771767    512000       
    163300   0.094223014   -21.303755      0.14133304    -21.162422      0.083888617    0.081699915    0.079970336    201.58737      50.396842      50.396842      0.081852956    512000       
    163400   0.093814316   -21.304937      0.14071999    -21.164217      0.075245396    0.077970346    0.078312854    201.58737      50.396842      50.396842      0.077176199    512000       
    163500   0.092782974   -21.305282      0.139173      -21.166109      0.077176726    0.074338285    0.075999714    201.58737      50.396842      50.396842      0.075838242    512000       
    163600   0.092110129   -21.306146      0.13816374    -21.167982      0.072333493    0.069109641    0.068649346    201.58737      50.396842      50.396842      0.070030827    512000       
    163700   0.0909011     -21.306072      0.13635022    -21.169722      0.073746351    0.068244263    0.068423137    201.58737      50.396842      50.396842      0.070137917    512000       
    163800   0.090162886   -21.306607      0.13524291    -21.171364      0.073113989    0.075170423    0.077920994    201.58737      50.396842      50.396842      0.075401802    512000       
    163900   0.08937013    -21.307051      0.13405379    -21.172997      0.07726603     0.074290169    0.068048496    201.58737      50.396842      50.396842      0.073201565    512000       
    164000   0.088829361   -21.307792      0.13324264    -21.174549      0.075039372    0.070688727    0.076882743    201.58737      50.396842      50.396842      0.074203614    512000       
    164100   0.088037742   -21.308352      0.13205523    -21.176297      0.069628073    0.072131288    0.071227766    201.58737      50.396842      50.396842      0.070995709    512000       
    164200   0.087050201   -21.308666      0.13057393    -21.178092      0.072268731    0.072825464    0.068738247    201.58737      50.396842      50.396842      0.071277481    512000       
    164300   0.086367391   -21.309359      0.12954972    -21.179809      0.070694316    0.067037908    0.073279591    201.58737      50.396842      50.396842      0.070337272    512000       
    164400   0.085523931   -21.309887      0.12828455    -21.181602      0.064761274    0.068417119    0.062907681    201.58737      50.396842      50.396842      0.065362025    512000       
    164500   0.084776136   -21.310549      0.12716287    -21.183386      0.06433742     0.069176577    0.072328031    201.58737      50.396842      50.396842      0.068614009    512000       
    164600   0.083895108   -21.310965      0.12584134    -21.185124      0.067991038    0.07288206     0.066501718    201.58737      50.396842      50.396842      0.069124939    512000       
    164700   0.082887146   -21.311086      0.12432941    -21.186757      0.064524723    0.071246128    0.069221211    201.58737      50.396842      50.396842      0.068330687    512000       
    164800   0.082320002   -21.311948      0.1234787     -21.188469      0.071500773    0.070676329    0.073549297    201.58737      50.396842      50.396842      0.0719088      512000       
    164900   0.081516088   -21.31246       0.12227285    -21.190187      0.073364111    0.077702797    0.074074927    201.58737      50.396842      50.396842      0.075047279    512000       
    165000   0.080769758   -21.313105      0.12115336    -21.191952      0.073059738    0.07243418     0.070203552    201.58737      50.396842      50.396842      0.071899157    512000       
    165100   0.079970103   -21.313654      0.11995389    -21.1937        0.07232233     0.073841905    0.069393838    201.58737      50.396842      50.396842      0.071852691    512000       
    165200   0.079213177   -21.314235      0.11881852    -21.195416      0.069166182    0.065056532    0.068206693    201.58737      50.396842      50.396842      0.067476469    512000       
    165300   0.078451583   -21.314811      0.11767614    -21.197135      0.071654453    0.071344667    0.067950329    201.58737      50.396842      50.396842      0.070316483    512000       
    165400   0.077746457   -21.315586      0.11661846    -21.198967      0.065082262    0.064446061    0.069442651    201.58737      50.396842      50.396842      0.066323658    512000       
    165500   0.076834618   -21.316075      0.11525072    -21.200824      0.064266719    0.063359126    0.068924975    201.58737      50.396842      50.396842      0.06551694     512000       
    165600   0.075915024   -21.316462      0.11387134    -21.20259       0.063111977    0.063733771    0.060667099    201.58737      50.396842      50.396842      0.062504282    512000       
    165700   0.075129001   -21.317009      0.11269232    -21.204316      0.063937692    0.068683038    0.065404827    201.58737      50.396842      50.396842      0.066008519    512000       
    165800   0.074354295   -21.317605      0.11153027    -21.206075      0.057029223    0.061736316    0.062993158    201.58737      50.396842      50.396842      0.060586232    512000       
    165900   0.07380468    -21.318579      0.11070586    -21.207873      0.065058682    0.063425761    0.063138194    201.58737      50.396842      50.396842      0.063874212    512000       
    166000   0.073020853   -21.31925       0.10953013    -21.20972       0.061909833    0.06002316     0.063090121    201.58737      50.396842      50.396842      0.061674371    512000       
    166100   0.071907855   -21.319485      0.10786065    -21.211625      0.066610787    0.068867537    0.063839285    201.58737      50.396842      50.396842      0.066439203    512000       
    166200   0.07112663    -21.320025      0.10668882    -21.213336      0.063631365    0.066911382    0.058690856    201.58737      50.396842      50.396842      0.063077868    512000       
    166300   0.070393616   -21.320647      0.10558931    -21.215058      0.059454157    0.059559135    0.061594619    201.58737      50.396842      50.396842      0.060202637    512000       
    166400   0.069617032   -21.321261      0.10442445    -21.216836      0.057242998    0.064149726    0.059736832    201.58737      50.396842      50.396842      0.060376519    512000       
    166500   0.068883839   -21.321951      0.10332467    -21.218626      0.064810252    0.059721584    0.060044043    201.58737      50.396842      50.396842      0.061525293    512000       
    166600   0.068053769   -21.32254       0.10207958    -21.220461      0.05794423     0.059421791    0.060649245    201.58737      50.396842      50.396842      0.059338422    512000       
    166700   0.067270771   -21.323251      0.1009051     -21.222346      0.059809726    0.053419384    0.06010235     201.58737      50.396842      50.396842      0.057777153    512000       
    166800   0.066603272   -21.324184      0.099903858   -21.22428       0.054396486    0.06022328     0.059130458    201.58737      50.396842      50.396842      0.057916741    512000       
    166900   0.06567957    -21.324649      0.09851832    -21.226131      0.056986431    0.05353941     0.055079215    201.58737      50.396842      50.396842      0.055201685    512000       
    167000   0.06492858    -21.325346      0.097391847   -21.227954      0.049770803    0.055980946    0.05071323     201.58737      50.396842      50.396842      0.052154993    512000       
    167100   0.06397622    -21.325752      0.095963322   -21.229789      0.050830706    0.05406222     0.051524691    201.58737      50.396842      50.396842      0.052139206    512000       
    167200   0.063042038   -21.326153      0.094562064   -21.231591      0.053269372    0.055549812    0.054085184    201.58737      50.396842      50.396842      0.054301456    512000       
    167300   0.06226676    -21.326709      0.093399158   -21.23331       0.055046373    0.055589724    0.05902532     201.58737      50.396842      50.396842      0.056553806    512000       
    167400   0.061475467   -21.327263      0.092212231   -21.235051      0.050571583    0.054408857    0.051288113    201.58737      50.396842      50.396842      0.052089518    512000       
    167500   0.060805531   -21.327999      0.091207338   -21.236792      0.052568571    0.054690737    0.052621728    201.58737      50.396842      50.396842      0.053293679    512000       
    167600   0.059943175   -21.328523      0.089913818   -21.238609      0.053430863    0.050341691    0.053720274    201.58737      50.396842      50.396842      0.052497609    512000       
    167700   0.059160431   -21.329095      0.088739714   -21.240356      0.052856683    0.049748314    0.051320596    201.58737      50.396842      50.396842      0.051308531    512000       
    167800   0.058478941   -21.329881      0.087717489   -21.242164      0.052170928    0.05108141     0.050948182    201.58737      50.396842      50.396842      0.051400173    512000       
    167900   0.057843304   -21.330791      0.086764044   -21.244027      0.048188034    0.048579822    0.050178232    201.58737      50.396842      50.396842      0.048982029    512000       
    168000   0.056796731   -21.331093      0.085194201   -21.245899      0.051338503    0.047827741    0.04953726     201.58737      50.396842      50.396842      0.049567835    512000       
    168100   0.056083961   -21.331817      0.084125058   -21.247691      0.051875083    0.043911868    0.048948696    201.58737      50.396842      50.396842      0.048245216    512000       
    168200   0.055298567   -21.332416      0.082946979   -21.249469      0.046418752    0.049111964    0.04901558     201.58737      50.396842      50.396842      0.048182099    512000       
    168300   0.054472815   -21.333035      0.081708364   -21.251327      0.050645485    0.04973811     0.051742802    201.58737      50.396842      50.396842      0.050708799    512000       
    168400   0.053740578   -21.333768      0.080610019   -21.253158      0.048423426    0.050705937    0.049682293    201.58737      50.396842      50.396842      0.049603885    512000       
    168500   0.052954587   -21.334382      0.079431046   -21.254951      0.052728369    0.049430063    0.049262297    201.58737      50.396842      50.396842      0.050473576    512000       
    168600   0.052103954   -21.334892      0.07815511    -21.256737      0.047481854    0.051011159    0.047018002    201.58737      50.396842      50.396842      0.048503672    512000       
    168700   0.051399284   -21.335631      0.077098116   -21.258533      0.048142031    0.044435206    0.047125386    201.58737      50.396842      50.396842      0.046567541    512000       
    168800   0.050584031   -21.336276      0.075875249   -21.260401      0.045570616    0.04546082     0.041941612    201.58737      50.396842      50.396842      0.04432435     512000       
    168900   0.049775675   -21.336907      0.074662728   -21.262244      0.044538917    0.044970524    0.044813144    201.58737      50.396842      50.396842      0.044774195    512000       
    169000   0.049046485   -21.337674      0.073568954   -21.264105      0.043609539    0.043616477    0.040972764    201.58737      50.396842      50.396842      0.042732927    512000       
    169100   0.048246048   -21.338376      0.072368311   -21.266008      0.038946628    0.038438716    0.042377182    201.58737      50.396842      50.396842      0.039920842    512000       
    169200   0.047397656   -21.338972      0.071095737   -21.267876      0.042780053    0.039718471    0.041598057    201.58737      50.396842      50.396842      0.041365527    512000       
    169300   0.046580875   -21.339634      0.069870578   -21.269763      0.036563178    0.03633671     0.043612048    201.58737      50.396842      50.396842      0.038837312    512000       
    169400   0.045782695   -21.340336      0.06867332    -21.271663      0.042500381    0.04285746     0.044309935    201.58737      50.396842      50.396842      0.043222592    512000       
    169500   0.045073715   -21.341177      0.067609862   -21.273567      0.037899248    0.04223742     0.041076723    201.58737      50.396842      50.396842      0.040404464    512000       
    169600   0.044303518   -21.341901      0.066454578   -21.275447      0.042316762    0.045379728    0.041465089    201.58737      50.396842      50.396842      0.04305386     512000       
    169700   0.043465963   -21.342523      0.065198259   -21.277325      0.036346737    0.040439554    0.041269213    201.58737      50.396842      50.396842      0.039351835    512000       
    169800   0.042741134   -21.343304      0.064111028   -21.279193      0.037774778    0.04360676     0.037532902    201.58737      50.396842      50.396842      0.039638147    512000       
    169900   0.041863638   -21.34387       0.062794798   -21.281075      0.043535061    0.042572766    0.039608107    201.58737      50.396842      50.396842      0.041905311    512000       
    170000   0.041121377   -21.344641      0.061681417   -21.28296       0.034471421    0.040494023    0.041690291    201.58737      50.396842      50.396842      0.038885245    512000       
Loop time of 279.927 on 1 procs for 20000 steps with 95168 atoms

Performance: 6173.035 tau/day, 71.447 timesteps/s, 6.799 Matom-step/s
100.0% CPU use with 1 MPI tasks x 1 OpenMP threads

MPI task timing breakdown:
Section |  min time  |  avg time  |  max time  |%varavg| %total
---------------------------------------------------------------
Pair    | 226.24     | 226.24     | 226.24     |   0.0 | 80.82
Neigh   | 8.8012     | 8.8012     | 8.8012     |   0.0 |  3.14
Comm    | 4.0706     | 4.0706     | 4.0706     |   0.0 |  1.45
Output  | 0.12913    | 0.12913    | 0.12913    |   0.0 |  0.05
Modify  | 31.573     | 31.573     | 31.573     |   0.0 | 11.28
Other   |            | 9.112      |            |       |  3.26

Nlocal:          95168 ave       95168 max       95168 min
Histogram: 1 0 0 0 0 0 0 0 0 0
Nghost:          23540 ave       23540 max       23540 min
Histogram: 1 0 0 0 0 0 0 0 0 0
Neighs:    1.12216e+06 ave 1.12216e+06 max 1.12216e+06 min
Histogram: 1 0 0 0 0 0 0 0 0 0

Total # of neighbors = 1122156
Ave neighs/atom = 11.791316
Neighbor list builds = 136
Dangerous builds = 0
############maintaining temp########################################
unfix           1
fix             1 all nvt temp ${ct} ${ct} 0.01
fix             1 all nvt temp 0.04 ${ct} 0.01
fix             1 all nvt temp 0.04 0.04 0.01
run             30000#test!0
Generated 0 of 36 mixed pair_coeff terms from geometric mixing rule
Per MPI rank memory allocation (min/avg/max) = 203.7 | 203.7 | 203.7 Mbytes
   Step          Temp          PotEng         KinEng         TotEng          Pxx            Pyy            Pzz             Lx             Ly             Lz           Press          Volume    
    170000   0.041121377   -21.344641      0.061681417   -21.28296       0.034471421    0.040494023    0.041690291    201.58737      50.396842      50.396842      0.038885245    512000       
    170100   0.039983403   -21.345439      0.059974475   -21.285464      0.039273808    0.035623455    0.033503886    201.58737      50.396842      50.396842      0.036133716    512000       
    170200   0.040146773   -21.346067      0.060219526   -21.285848      0.037133147    0.038079231    0.034106311    201.58737      50.396842      50.396842      0.036439563    512000       
    170300   0.040128388   -21.346195      0.060191949   -21.286003      0.039625702    0.038438923    0.039310235    201.58737      50.396842      50.396842      0.039124953    512000       
    170400   0.04004295    -21.346315      0.060063794   -21.286251      0.039880675    0.038315077    0.039347727    201.58737      50.396842      50.396842      0.03918116     512000       
    170500   0.039924029   -21.346312      0.059885414   -21.286426      0.03771476     0.03889506     0.03716631     201.58737      50.396842      50.396842      0.037925376    512000       
    170600   0.040148093   -21.346278      0.060221507   -21.286057      0.037187431    0.035000636    0.038848572    201.58737      50.396842      50.396842      0.037012213    512000       
    170700   0.039954294   -21.346094      0.059930811   -21.286163      0.03643197     0.035946061    0.036609881    201.58737      50.396842      50.396842      0.036329304    512000       
    170800   0.039973953   -21.346219      0.0599603     -21.286258      0.036073524    0.036221853    0.036641776    201.58737      50.396842      50.396842      0.036312384    512000       
    170900   0.039872098   -21.346103      0.059807518   -21.286295      0.035446996    0.039622747    0.034002564    201.58737      50.396842      50.396842      0.036357436    512000       
    171000   0.039983941   -21.346251      0.059975281   -21.286276      0.040518532    0.035393874    0.037048127    201.58737      50.396842      50.396842      0.037653511    512000       
    171100   0.039988032   -21.346135      0.059981418   -21.286154      0.03717676     0.038745975    0.037043181    201.58737      50.396842      50.396842      0.037655305    512000       
    171200   0.040034626   -21.346062      0.060051308   -21.286011      0.038041991    0.03714106     0.03890944     201.58737      50.396842      50.396842      0.038030831    512000       
    171300   0.040117498   -21.34599       0.060175615   -21.285814      0.035142635    0.039533236    0.038199039    201.58737      50.396842      50.396842      0.03762497     512000       
    171400   0.04003251    -21.346009      0.060048134   -21.285961      0.036366192    0.035058918    0.034272519    201.58737      50.396842      50.396842      0.035232543    512000       
    171500   0.04034325    -21.345858      0.06051424    -21.285344      0.031437462    0.033613764    0.033984455    201.58737      50.396842      50.396842      0.033011894    512000       
    171600   0.040033996   -21.345834      0.060050363   -21.285784      0.032622777    0.03134925     0.030157894    201.58737      50.396842      50.396842      0.03137664     512000       
    171700   0.040059361   -21.345814      0.060088411   -21.285726      0.028105292    0.033303482    0.033891621    201.58737      50.396842      50.396842      0.031766798    512000       
    171800   0.039883279   -21.345737      0.059824289   -21.285913      0.033021724    0.031574618    0.026940479    201.58737      50.396842      50.396842      0.030512273    512000       
    171900   0.039706766   -21.34598       0.059559523   -21.286421      0.036568694    0.033275355    0.032183872    201.58737      50.396842      50.396842      0.034009307    512000       
    172000   0.039956841   -21.345886      0.059934632   -21.285952      0.033325742    0.033895454    0.032719564    201.58737      50.396842      50.396842      0.033313587    512000       
    172100   0.04015187    -21.345955      0.060227172   -21.285728      0.041793437    0.033595134    0.036012333    201.58737      50.396842      50.396842      0.037133634    512000       
    172200   0.040037188   -21.345786      0.060055151   -21.285731      0.035594626    0.04132116     0.03827624     201.58737      50.396842      50.396842      0.038397342    512000       
    172300   0.040117558   -21.345845      0.060175705   -21.285669      0.040258042    0.037018439    0.041033784    201.58737      50.396842      50.396842      0.039436755    512000       
    172400   0.040067598   -21.345776      0.060100765   -21.285676      0.033050014    0.037277782    0.033945342    201.58737      50.396842      50.396842      0.034757713    512000       
    172500   0.040148238   -21.345717      0.060221725   -21.285495      0.034965495    0.037237099    0.037932214    201.58737      50.396842      50.396842      0.036711603    512000       
    172600   0.040229995   -21.345749      0.060344359   -21.285405      0.036008741    0.038090002    0.036798273    201.58737      50.396842      50.396842      0.036965672    512000       
    172700   0.040174339   -21.3457        0.060260875   -21.285439      0.039527247    0.03568333     0.035671763    201.58737      50.396842      50.396842      0.03696078     512000       
    172800   0.040007109   -21.345458      0.060010033   -21.285448      0.035429813    0.034855218    0.035401842    201.58737      50.396842      50.396842      0.035228957    512000       
    172900   0.039823904   -21.34539       0.059735229   -21.285655      0.032203433    0.034485735    0.031114234    201.58737      50.396842      50.396842      0.032601134    512000       
    173000   0.039739789   -21.345454      0.059609058   -21.285845      0.031456748    0.032699296    0.029819766    201.58737      50.396842      50.396842      0.03132527     512000       
    173100   0.039938521   -21.345246      0.059907153   -21.285339      0.034048047    0.036514561    0.032870822    201.58737      50.396842      50.396842      0.03447781     512000       
    173200   0.03986767    -21.345388      0.059800877   -21.285587      0.034175397    0.034709385    0.036361447    201.58737      50.396842      50.396842      0.035082076    512000       
    173300   0.039975245   -21.345479      0.059962238   -21.285516      0.034730755    0.037441765    0.0386331      201.58737      50.396842      50.396842      0.036935207    512000       
    173400   0.039849349   -21.345208      0.059773396   -21.285435      0.043908416    0.039698549    0.037773281    201.58737      50.396842      50.396842      0.040460082    512000       
    173500   0.039998456   -21.345362      0.059997053   -21.285365      0.035388351    0.035247959    0.036368087    201.58737      50.396842      50.396842      0.035668133    512000       
    173600   0.039792792   -21.345119      0.05968856    -21.285431      0.039158023    0.032482902    0.039293612    201.58737      50.396842      50.396842      0.036978179    512000       
    173700   0.040090391   -21.345236      0.060134955   -21.285101      0.03360518     0.041566875    0.037162365    201.58737      50.396842      50.396842      0.037444807    512000       
    173800   0.040085778   -21.345107      0.060128035   -21.284979      0.036349774    0.031837008    0.033968575    201.58737      50.396842      50.396842      0.034051786    512000       
    173900   0.039998601   -21.345049      0.05999727    -21.285052      0.031563585    0.030679024    0.036982439    201.58737      50.396842      50.396842      0.033075016    512000       
    174000   0.039826663   -21.345189      0.059739366   -21.28545       0.032229645    0.03476528     0.031412373    201.58737      50.396842      50.396842      0.032802433    512000       
    174100   0.039960554   -21.345088      0.059940202   -21.285148      0.037774618    0.032405015    0.036122574    201.58737      50.396842      50.396842      0.035434069    512000       
    174200   0.03983747    -21.345257      0.059755577   -21.285501      0.034569094    0.03767882     0.033870054    201.58737      50.396842      50.396842      0.035372656    512000       
    174300   0.039942405   -21.345317      0.059912978   -21.285404      0.038332647    0.033589509    0.032320911    201.58737      50.396842      50.396842      0.034747689    512000       
    174400   0.039906494   -21.344896      0.059859112   -21.285037      0.04035429     0.036724866    0.034821583    201.58737      50.396842      50.396842      0.037300246    512000       
    174500   0.039893545   -21.344877      0.059839689   -21.285037      0.036560829    0.033624937    0.037688205    201.58737      50.396842      50.396842      0.035957991    512000       
    174600   0.039909724   -21.345039      0.059863956   -21.285175      0.036158376    0.038752041    0.036199574    201.58737      50.396842      50.396842      0.037036664    512000       
    174700   0.040022857   -21.344977      0.060033655   -21.284943      0.036199173    0.031750651    0.035051128    201.58737      50.396842      50.396842      0.034333651    512000       
    174800   0.040134351   -21.345062      0.060200894   -21.284861      0.033959007    0.036357701    0.033376008    201.58737      50.396842      50.396842      0.034564238    512000       
    174900   0.040096698   -21.344718      0.060144416   -21.284574      0.038774464    0.036723097    0.034780654    201.58737      50.396842      50.396842      0.036759405    512000       
    175000   0.040145064   -21.344751      0.060216963   -21.284534      0.033210558    0.03853071     0.034756588    201.58737      50.396842      50.396842      0.035499285    512000       
    175100   0.039946018   -21.34469       0.059918398   -21.284772      0.038004432    0.037093331    0.031733728    201.58737      50.396842      50.396842      0.035610497    512000       
    175200   0.04004051    -21.34465       0.060060134   -21.28459       0.030040711    0.027944304    0.036399295    201.58737      50.396842      50.396842      0.031461437    512000       
    175300   0.040068489   -21.344751      0.060102102   -21.284649      0.036760531    0.037038188    0.029645912    201.58737      50.396842      50.396842      0.034481544    512000       
    175400   0.040099146   -21.344671      0.060148087   -21.284522      0.036613133    0.033645206    0.034655651    201.58737      50.396842      50.396842      0.03497133     512000       
    175500   0.039943246   -21.344624      0.059914239   -21.284709      0.031982644    0.037426351    0.035607684    201.58737      50.396842      50.396842      0.03500556     512000       
    175600   0.040029401   -21.34467       0.060043471   -21.284626      0.040518314    0.0361024      0.041327812    201.58737      50.396842      50.396842      0.039316175    512000       
    175700   0.039951548   -21.344627      0.059926692   -21.2847        0.033356801    0.034382434    0.036545378    201.58737      50.396842      50.396842      0.034761538    512000       
    175800   0.039924061   -21.344478      0.059885462   -21.284593      0.039076731    0.037565466    0.03518142     201.58737      50.396842      50.396842      0.037274539    512000       
    175900   0.039818868   -21.344471      0.059727674   -21.284743      0.028942263    0.031440968    0.035030613    201.58737      50.396842      50.396842      0.031804615    512000       
    176000   0.039916227   -21.344446      0.059873712   -21.284572      0.036761919    0.034310073    0.032785699    201.58737      50.396842      50.396842      0.03461923     512000       
    176100   0.039956793   -21.344461      0.059934559   -21.284527      0.029252385    0.033664354    0.03151798     201.58737      50.396842      50.396842      0.03147824     512000       
    176200   0.040139345   -21.34425       0.060208385   -21.284042      0.03555433     0.029061675    0.032944725    201.58737      50.396842      50.396842      0.032520243    512000       
    176300   0.040034511   -21.344156      0.060051136   -21.284105      0.031023888    0.031500018    0.036002584    201.58737      50.396842      50.396842      0.032842163    512000       
    176400   0.039993468   -21.344301      0.059989571   -21.284311      0.035283268    0.040000081    0.03231568     201.58737      50.396842      50.396842      0.035866343    512000       
    176500   0.03998057    -21.344234      0.059970226   -21.284264      0.035063974    0.034085598    0.031868474    201.58737      50.396842      50.396842      0.033672682    512000       
    176600   0.040079637   -21.344262      0.060118824   -21.284144      0.03469338     0.034588928    0.034500201    201.58737      50.396842      50.396842      0.03459417     512000       
    176700   0.040139933   -21.344139      0.060209268   -21.283929      0.032633209    0.036444084    0.030098037    201.58737      50.396842      50.396842      0.033058443    512000       
    176800   0.039903056   -21.343962      0.059853955   -21.284108      0.033667696    0.038917527    0.037240298    201.58737      50.396842      50.396842      0.036608507    512000       
    176900   0.03998929    -21.344029      0.059983305   -21.284046      0.034087136    0.031573275    0.030096429    201.58737      50.396842      50.396842      0.031918947    512000       
    177000   0.039955295   -21.344114      0.059932313   -21.284182      0.030305336    0.03616198     0.032910248    201.58737      50.396842      50.396842      0.033125854    512000       
    177100   0.040075478   -21.34407       0.060112586   -21.283957      0.030449574    0.031573185    0.027412694    201.58737      50.396842      50.396842      0.029811818    512000       
    177200   0.039857741   -21.343922      0.059785984   -21.284136      0.027605064    0.031303836    0.031828296    201.58737      50.396842      50.396842      0.030245732    512000       
    177300   0.040015102   -21.343875      0.060022022   -21.283853      0.036683521    0.034691021    0.037375307    201.58737      50.396842      50.396842      0.03624995     512000       
    177400   0.04015248    -21.34382       0.060228088   -21.283592      0.033950754    0.033257108    0.029375763    201.58737      50.396842      50.396842      0.032194542    512000       
    177500   0.03996542    -21.343794      0.0599475     -21.283846      0.034812569    0.027400645    0.030510601    201.58737      50.396842      50.396842      0.030907938    512000       
    177600   0.039916604   -21.343866      0.059874277   -21.283992      0.030392459    0.033300157    0.033410579    201.58737      50.396842      50.396842      0.032367732    512000       
    177700   0.04019887    -21.343763      0.060297672   -21.283466      0.0369306      0.031751541    0.035379295    201.58737      50.396842      50.396842      0.034687145    512000       
    177800   0.04003444    -21.343591      0.060051028   -21.28354       0.036912845    0.034525832    0.034451751    201.58737      50.396842      50.396842      0.035296809    512000       
    177900   0.039741752   -21.343658      0.059612002   -21.284046      0.037061172    0.039433484    0.039644622    201.58737      50.396842      50.396842      0.038713093    512000       
    178000   0.039822134   -21.343809      0.059732573   -21.284076      0.034077899    0.035341466    0.032928126    201.58737      50.396842      50.396842      0.034115831    512000       
    178100   0.040001691   -21.343447      0.060001906   -21.283446      0.036994988    0.032229999    0.03649926     201.58737      50.396842      50.396842      0.035241416    512000       
    178200   0.039761592   -21.343618      0.059641761   -21.283977      0.037589982    0.037761894    0.037031527    201.58737      50.396842      50.396842      0.037461134    512000       
    178300   0.039869879   -21.343605      0.05980419    -21.283801      0.029798113    0.030260214    0.028662097    201.58737      50.396842      50.396842      0.029573475    512000       
    178400   0.039871368   -21.343348      0.059806424   -21.283541      0.030126965    0.032540836    0.03477976     201.58737      50.396842      50.396842      0.03248252     512000       
    178500   0.039988913   -21.343532      0.059982739   -21.28355       0.0329105      0.033898983    0.033263002    201.58737      50.396842      50.396842      0.033357495    512000       
    178600   0.040034749   -21.343473      0.060051492   -21.283421      0.034533672    0.036158892    0.036071196    201.58737      50.396842      50.396842      0.03558792     512000       
    178700   0.039884117   -21.343216      0.059825547   -21.283391      0.036840231    0.029923874    0.034391459    201.58737      50.396842      50.396842      0.033718521    512000       
    178800   0.039956758   -21.343323      0.059934507   -21.283389      0.035557296    0.032248899    0.034740474    201.58737      50.396842      50.396842      0.034182223    512000       
    178900   0.039841382   -21.34341       0.059761445   -21.283648      0.033521237    0.032256161    0.02936457     201.58737      50.396842      50.396842      0.031713989    512000       
    179000   0.040012292   -21.343378      0.060017807   -21.283361      0.02925577     0.030874542    0.029588127    201.58737      50.396842      50.396842      0.029906146    512000       
    179100   0.040076078   -21.343571      0.060113485   -21.283457      0.036032184    0.034044295    0.032515124    201.58737      50.396842      50.396842      0.034197201    512000       
    179200   0.040059073   -21.343331      0.060087979   -21.283243      0.033159113    0.030271371    0.032317765    201.58737      50.396842      50.396842      0.031916083    512000       
    179300   0.039925748   -21.343398      0.059887993   -21.28351       0.033698076    0.029184166    0.027807579    201.58737      50.396842      50.396842      0.03022994     512000       
    179400   0.03997405    -21.343209      0.059960445   -21.283249      0.030443189    0.034537209    0.033136462    201.58737      50.396842      50.396842      0.03270562     512000       
    179500   0.039908011   -21.343324      0.059861387   -21.283462      0.030215959    0.029198399    0.030907907    201.58737      50.396842      50.396842      0.030107422    512000       
    179600   0.040003402   -21.343067      0.060004472   -21.283062      0.031354555    0.03437338     0.037187854    201.58737      50.396842      50.396842      0.034305263    512000       
    179700   0.040129286   -21.34301       0.060193296   -21.282816      0.030553822    0.035286743    0.037380897    201.58737      50.396842      50.396842      0.034407154    512000       
    179800   0.040176627   -21.342911      0.060264307   -21.282647      0.036564455    0.031182647    0.030546201    201.58737      50.396842      50.396842      0.032764434    512000       
    179900   0.040028508   -21.343087      0.060042132   -21.283045      0.031914765    0.036423997    0.040550551    201.58737      50.396842      50.396842      0.036296438    512000       
    180000   0.039969562   -21.343071      0.059953713   -21.283117      0.041826463    0.0327776      0.032537598    201.58737      50.396842      50.396842      0.035713887    512000       
    180100   0.039981788   -21.342922      0.059972052   -21.28295       0.030972837    0.033470797    0.033271865    201.58737      50.396842      50.396842      0.032571833    512000       
    180200   0.040033243   -21.34314       0.060049234   -21.283091      0.031866237    0.032710814    0.029543185    201.58737      50.396842      50.396842      0.031373412    512000       
    180300   0.039981673   -21.343206      0.059971879   -21.283234      0.028474816    0.029415909    0.029309752    201.58737      50.396842      50.396842      0.029066826    512000       
    180400   0.040013586   -21.342874      0.060019748   -21.282854      0.027164605    0.027611979    0.027619917    201.58737      50.396842      50.396842      0.0274655      512000       
    180500   0.039927012   -21.342869      0.059889889   -21.282979      0.026738087    0.027204318    0.028062611    201.58737      50.396842      50.396842      0.027335005    512000       
    180600   0.039970887   -21.342868      0.0599557     -21.282912      0.030115637    0.026647763    0.027238232    201.58737      50.396842      50.396842      0.028000544    512000       
    180700   0.04009388    -21.342988      0.060140188   -21.282848      0.024658037    0.024939204    0.031520418    201.58737      50.396842      50.396842      0.02703922     512000       
    180800   0.040031355   -21.342972      0.060046401   -21.282925      0.029104221    0.027762444    0.027113827    201.58737      50.396842      50.396842      0.027993497    512000       
    180900   0.040012902   -21.342771      0.060018723   -21.282753      0.026131179    0.032080264    0.031187268    201.58737      50.396842      50.396842      0.02979957     512000       
    181000   0.039969123   -21.342608      0.059953054   -21.282655      0.026612055    0.028927033    0.03031418     201.58737      50.396842      50.396842      0.028617756    512000       
    181100   0.039816748   -21.34269       0.059724494   -21.282965      0.025889907    0.032969265    0.033781673    201.58737      50.396842      50.396842      0.030880281    512000       
    181200   0.039963015   -21.342619      0.059943892   -21.282675      0.033572691    0.031733698    0.033758189    201.58737      50.396842      50.396842      0.033021526    512000       
    181300   0.040034939   -21.34249       0.060051777   -21.282438      0.028218508    0.027261111    0.026882085    201.58737      50.396842      50.396842      0.027453901    512000       
    181400   0.039987765   -21.342885      0.059981017   -21.282904      0.030161485    0.037935986    0.035880754    201.58737      50.396842      50.396842      0.034659408    512000       
    181500   0.039943253   -21.342507      0.05991425    -21.282593      0.033586401    0.034307431    0.029129831    201.58737      50.396842      50.396842      0.032341221    512000       
    181600   0.040255993   -21.342548      0.060383355   -21.282165      0.029306203    0.032893441    0.030090872    201.58737      50.396842      50.396842      0.030763505    512000       
    181700   0.039913244   -21.342497      0.059869238   -21.282628      0.031855219    0.028385801    0.037353743    201.58737      50.396842      50.396842      0.032531588    512000       
    181800   0.039959636   -21.342704      0.059938824   -21.282765      0.030502187    0.036261992    0.028085827    201.58737      50.396842      50.396842      0.031616669    512000       
    181900   0.039953647   -21.34247       0.059929841   -21.28254       0.031770128    0.030227713    0.029533816    201.58737      50.396842      50.396842      0.030510552    512000       
    182000   0.039915921   -21.342667      0.059873252   -21.282794      0.034972491    0.029244481    0.033778061    201.58737      50.396842      50.396842      0.032665011    512000       
    182100   0.039916089   -21.342406      0.059873505   -21.282533      0.037783903    0.030703752    0.030903596    201.58737      50.396842      50.396842      0.033130417    512000       
    182200   0.040093794   -21.342432      0.060140059   -21.282292      0.033351343    0.03427027     0.035793251    201.58737      50.396842      50.396842      0.034471621    512000       
    182300   0.039988129   -21.342108      0.059981563   -21.282126      0.033793492    0.027690204    0.029556871    201.58737      50.396842      50.396842      0.030346856    512000       
    182400   0.039954264   -21.342417      0.059930766   -21.282486      0.026247156    0.026599249    0.030019813    201.58737      50.396842      50.396842      0.027622073    512000       
    182500   0.040032      -21.342337      0.060047368   -21.282289      0.031671815    0.028049041    0.02730451     201.58737      50.396842      50.396842      0.029008455    512000       
    182600   0.040005885   -21.342279      0.060008196   -21.282271      0.035692599    0.029890821    0.031207193    201.58737      50.396842      50.396842      0.032263538    512000       
    182700   0.040127319   -21.342181      0.060190347   -21.28199       0.037304841    0.030924692    0.032148211    201.58737      50.396842      50.396842      0.033459248    512000       
    182800   0.040003075   -21.342269      0.060003983   -21.282265      0.031785409    0.029495308    0.029229841    201.58737      50.396842      50.396842      0.030170186    512000       
    182900   0.039883836   -21.342123      0.059825126   -21.282298      0.029493803    0.03026178     0.033750294    201.58737      50.396842      50.396842      0.031168626    512000       
    183000   0.039965372   -21.342109      0.059947427   -21.282162      0.031283789    0.023806472    0.029486596    201.58737      50.396842      50.396842      0.028192286    512000       
    183100   0.039759378   -21.342182      0.059638441   -21.282543      0.026712394    0.029252729    0.028955381    201.58737      50.396842      50.396842      0.028306835    512000       
    183200   0.040017314   -21.342168      0.060025341   -21.282142      0.032291724    0.028717973    0.024902296    201.58737      50.396842      50.396842      0.028637331    512000       
    183300   0.040041656   -21.342131      0.060061854   -21.282069      0.028918722    0.031076949    0.027078177    201.58737      50.396842      50.396842      0.029024616    512000       
    183400   0.040084856   -21.342033      0.060126653   -21.281907      0.033123033    0.035063278    0.028754416    201.58737      50.396842      50.396842      0.032313575    512000       
    183500   0.040202898   -21.341919      0.060303713   -21.281616      0.027054467    0.025923442    0.029980572    201.58737      50.396842      50.396842      0.027652827    512000       
    183600   0.040132464   -21.34216       0.060198064   -21.281962      0.025822873    0.027398276    0.02661812     201.58737      50.396842      50.396842      0.026613089    512000       
    183700   0.040019985   -21.342051      0.060029347   -21.282022      0.036834098    0.029394616    0.025312382    201.58737      50.396842      50.396842      0.030513699    512000       
    183800   0.040140731   -21.341886      0.060210464   -21.281676      0.025320943    0.029572386    0.032174983    201.58737      50.396842      50.396842      0.029022771    512000       
    183900   0.040034571   -21.341761      0.060051225   -21.281709      0.025395705    0.029449256    0.028197938    201.58737      50.396842      50.396842      0.027680966    512000       
    184000   0.039914612   -21.341919      0.059871288   -21.282047      0.028114275    0.029480876    0.029607762    201.58737      50.396842      50.396842      0.029067638    512000       
    184100   0.040127997   -21.341849      0.060191363   -21.281658      0.030215011    0.030597707    0.028066148    201.58737      50.396842      50.396842      0.029626289    512000       
    184200   0.040232914   -21.341663      0.060348736   -21.281314      0.02732382     0.02773888     0.026395644    201.58737      50.396842      50.396842      0.027152781    512000       
    184300   0.039926892   -21.34184       0.059889709   -21.28195       0.031225905    0.029678787    0.027155737    201.58737      50.396842      50.396842      0.029353477    512000       
    184400   0.039858901   -21.341526      0.059787724   -21.281738      0.026709343    0.024093013    0.027322888    201.58737      50.396842      50.396842      0.026041748    512000       
    184500   0.040121215   -21.341642      0.06018119    -21.281461      0.026721699    0.027483447    0.022887681    201.58737      50.396842      50.396842      0.025697609    512000       
    184600   0.040088656   -21.341654      0.060132352   -21.281521      0.03145063     0.029009861    0.033220755    201.58737      50.396842      50.396842      0.031227082    512000       
    184700   0.040055271   -21.341728      0.060082274   -21.281645      0.032648008    0.026136121    0.030273592    201.58737      50.396842      50.396842      0.029685907    512000       
    184800   0.040091732   -21.341651      0.060136966   -21.281514      0.028866241    0.028824299    0.033008387    201.58737      50.396842      50.396842      0.030232976    512000       
    184900   0.040197694   -21.341661      0.060295907   -21.281365      0.030557527    0.029379402    0.031397388    201.58737      50.396842      50.396842      0.030444772    512000       
    185000   0.040108242   -21.341848      0.06016173    -21.281686      0.026887966    0.028289461    0.025994637    201.58737      50.396842      50.396842      0.027057355    512000       
    185100   0.040005592   -21.341525      0.060007757   -21.281518      0.028126999    0.032525173    0.028514214    201.58737      50.396842      50.396842      0.029722129    512000       
    185200   0.040106968   -21.341522      0.06015982    -21.281362      0.029412404    0.027837931    0.025907307    201.58737      50.396842      50.396842      0.027719214    512000       
    185300   0.039896322   -21.341757      0.059843854   -21.281913      0.025839706    0.034279368    0.024770629    201.58737      50.396842      50.396842      0.028296568    512000       
    185400   0.040159553   -21.341624      0.060238697   -21.281385      0.028130432    0.025875277    0.023460173    201.58737      50.396842      50.396842      0.025821961    512000       
    185500   0.040011509   -21.341566      0.060016633   -21.281549      0.029623483    0.023278899    0.033614676    201.58737      50.396842      50.396842      0.028839019    512000       
    185600   0.040044277   -21.341558      0.060065785   -21.281492      0.028696774    0.024998204    0.02709036     201.58737      50.396842      50.396842      0.026928446    512000       
    185700   0.039951385   -21.341306      0.059926448   -21.28138       0.026783508    0.025943497    0.030224177    201.58737      50.396842      50.396842      0.027650394    512000       
    185800   0.039993167   -21.341431      0.05998912    -21.281442      0.029850766    0.02805773     0.02674638     201.58737      50.396842      50.396842      0.028218292    512000       
    185900   0.039863617   -21.341444      0.059794797   -21.28165       0.030167459    0.028226156    0.030434746    201.58737      50.396842      50.396842      0.029609454    512000       
    186000   0.04015567    -21.341551      0.060232872   -21.281319      0.02770196     0.025683319    0.025246815    201.58737      50.396842      50.396842      0.026210698    512000       
    186100   0.039973494   -21.341343      0.059959611   -21.281384      0.027073297    0.02446141     0.028557742    201.58737      50.396842      50.396842      0.026697483    512000       
    186200   0.039945187   -21.341271      0.059917151   -21.281354      0.028574948    0.032695287    0.02949168     201.58737      50.396842      50.396842      0.030253972    512000       
    186300   0.039953648   -21.341226      0.059929842   -21.281296      0.027388198    0.02931802     0.029495711    201.58737      50.396842      50.396842      0.028733976    512000       
    186400   0.039856807   -21.341369      0.059784583   -21.281584      0.023696141    0.032430379    0.029639776    201.58737      50.396842      50.396842      0.028588765    512000       
    186500   0.040193826   -21.341118      0.060290105   -21.280828      0.024639051    0.029135483    0.02388044     201.58737      50.396842      50.396842      0.025884991    512000       
    186600   0.040153133   -21.341104      0.060229067   -21.280875      0.033356376    0.029781503    0.033185199    201.58737      50.396842      50.396842      0.032107693    512000       
    186700   0.04007108    -21.341272      0.060105988   -21.281166      0.035207117    0.037879066    0.032511918    201.58737      50.396842      50.396842      0.035199367    512000       
    186800   0.039884214   -21.340976      0.059825693   -21.28115       0.031509952    0.029341456    0.029191174    201.58737      50.396842      50.396842      0.030014194    512000       
    186900   0.040031272   -21.341167      0.060046277   -21.281121      0.026521942    0.02436666     0.024602702    201.58737      50.396842      50.396842      0.025163768    512000       
    187000   0.039989412   -21.34127       0.059983487   -21.281286      0.028657042    0.025725601    0.022302376    201.58737      50.396842      50.396842      0.025561673    512000       
    187100   0.040044249   -21.341341      0.060065742   -21.281275      0.022960026    0.025459451    0.019832865    201.58737      50.396842      50.396842      0.022750781    512000       
    187200   0.039900941   -21.341189      0.059850783   -21.281338      0.028202624    0.02453199     0.024422525    201.58737      50.396842      50.396842      0.025719047    512000       
    187300   0.03991946    -21.341186      0.05987856    -21.281307      0.024473201    0.028672311    0.020551682    201.58737      50.396842      50.396842      0.024565732    512000       
    187400   0.039931365   -21.340911      0.059896418   -21.281015      0.026383547    0.029330626    0.029939593    201.58737      50.396842      50.396842      0.028551255    512000       
    187500   0.03974432    -21.340989      0.059615854   -21.281373      0.028024       0.02899774     0.029084333    201.58737      50.396842      50.396842      0.028702024    512000       
    187600   0.040043931   -21.340733      0.060065265   -21.280668      0.025420955    0.025474648    0.030277157    201.58737      50.396842      50.396842      0.027057587    512000       
    187700   0.039947449   -21.340916      0.059920544   -21.280995      0.029755081    0.024722527    0.026506022    201.58737      50.396842      50.396842      0.026994543    512000       
    187800   0.039982746   -21.340972      0.059973489   -21.280998      0.024766849    0.027724594    0.028920626    201.58737      50.396842      50.396842      0.027137356    512000       
    187900   0.039934852   -21.341073      0.059901649   -21.281171      0.029875491    0.028624629    0.026186545    201.58737      50.396842      50.396842      0.028228888    512000       
    188000   0.039865622   -21.34109       0.059797804   -21.281293      0.029510042    0.032912592    0.028611881    201.58737      50.396842      50.396842      0.030344839    512000       
    188100   0.039891078   -21.340761      0.059835988   -21.280925      0.029262036    0.035346854    0.025759893    201.58737      50.396842      50.396842      0.030122928    512000       
    188200   0.040023106   -21.340736      0.060034028   -21.280701      0.03170228     0.034050871    0.035188556    201.58737      50.396842      50.396842      0.033647235    512000       
    188300   0.040055898   -21.340817      0.060083215   -21.280734      0.02545856     0.026081764    0.025233724    201.58737      50.396842      50.396842      0.025591349    512000       
    188400   0.040189819   -21.340781      0.060284095   -21.280497      0.028808991    0.027097949    0.024656195    201.58737      50.396842      50.396842      0.026854379    512000       
    188500   0.040174553   -21.34074       0.060261196   -21.280479      0.027665916    0.028834627    0.026216753    201.58737      50.396842      50.396842      0.027572432    512000       
    188600   0.040161638   -21.340545      0.060241825   -21.280303      0.028428565    0.024990165    0.026331275    201.58737      50.396842      50.396842      0.026583335    512000       
    188700   0.040119715   -21.340573      0.060178941   -21.280394      0.0260426      0.026651626    0.028203154    201.58737      50.396842      50.396842      0.026965793    512000       
    188800   0.039998688   -21.340743      0.059997401   -21.280746      0.028614231    0.020877416    0.025362769    201.58737      50.396842      50.396842      0.024951472    512000       
    188900   0.039986892   -21.340671      0.059979708   -21.280691      0.027501393    0.029039574    0.030990911    201.58737      50.396842      50.396842      0.029177293    512000       
    189000   0.039954296   -21.340682      0.059930815   -21.280751      0.029671306    0.026756307    0.031656279    201.58737      50.396842      50.396842      0.029361297    512000       
    189100   0.039962741   -21.340623      0.059943482   -21.280679      0.035048773    0.034329845    0.034080473    201.58737      50.396842      50.396842      0.034486364    512000       
    189200   0.03990841    -21.34071       0.059861986   -21.280848      0.025147793    0.02698314     0.029275076    201.58737      50.396842      50.396842      0.027135336    512000       
    189300   0.039897564   -21.340628      0.059845717   -21.280782      0.031878239    0.029861636    0.0326381      201.58737      50.396842      50.396842      0.031459325    512000       
    189400   0.04014198    -21.34049       0.060212337   -21.280278      0.030790146    0.029977705    0.026756106    201.58737      50.396842      50.396842      0.029174653    512000       
    189500   0.039990923   -21.340675      0.059985754   -21.280689      0.023985323    0.025979422    0.028936213    201.58737      50.396842      50.396842      0.026300319    512000       
    189600   0.039834613   -21.340745      0.059751292   -21.280994      0.030197342    0.023917983    0.02704627     201.58737      50.396842      50.396842      0.027053865    512000       
    189700   0.040017689   -21.340329      0.060025903   -21.280303      0.024073122    0.02926768     0.026195799    201.58737      50.396842      50.396842      0.026512201    512000       
    189800   0.040088615   -21.340614      0.060132291   -21.280482      0.028060571    0.026134027    0.031460586    201.58737      50.396842      50.396842      0.028551728    512000       
    189900   0.039804201   -21.340427      0.059705674   -21.280721      0.032318801    0.039408253    0.031801394    201.58737      50.396842      50.396842      0.034509483    512000       
    190000   0.03998293    -21.340368      0.059973765   -21.280395      0.032929355    0.035245861    0.034372726    201.58737      50.396842      50.396842      0.034182647    512000       
    190100   0.040143107   -21.340312      0.060214028   -21.280098      0.025401836    0.028939717    0.026872643    201.58737      50.396842      50.396842      0.027071399    512000       
    190200   0.039902544   -21.3405        0.059853187   -21.280647      0.028706004    0.02990063     0.031275436    201.58737      50.396842      50.396842      0.02996069     512000       
    190300   0.040028012   -21.340461      0.060041387   -21.280419      0.029335011    0.028638621    0.024097092    201.58737      50.396842      50.396842      0.027356908    512000       
    190400   0.039841676   -21.34017       0.059761887   -21.280408      0.032927059    0.026476587    0.027140226    201.58737      50.396842      50.396842      0.028847957    512000       
    190500   0.039930666   -21.340319      0.059895369   -21.280424      0.024937393    0.032124647    0.023431191    201.58737      50.396842      50.396842      0.026831077    512000       
    190600   0.040102967   -21.340371      0.060153818   -21.280218      0.030535188    0.021892403    0.025384169    201.58737      50.396842      50.396842      0.025937253    512000       
    190700   0.040086291   -21.340181      0.060128805   -21.280052      0.028070495    0.030749193    0.028372953    201.58737      50.396842      50.396842      0.029064214    512000       
    190800   0.040045572   -21.340331      0.060067726   -21.280263      0.027977031    0.026186317    0.025631768    201.58737      50.396842      50.396842      0.026598372    512000       
    190900   0.03993987    -21.340393      0.059909175   -21.280484      0.029202164    0.023791013    0.030957089    201.58737      50.396842      50.396842      0.027983422    512000       
    191000   0.040022852   -21.340369      0.060033647   -21.280336      0.026793041    0.023485711    0.02624854     201.58737      50.396842      50.396842      0.025509097    512000       
    191100   0.03997422    -21.340269      0.0599607     -21.280308      0.024622579    0.0204428      0.023577751    201.58737      50.396842      50.396842      0.022881043    512000       
    191200   0.040075826   -21.340228      0.060113107   -21.280115      0.024783598    0.021060587    0.024760357    201.58737      50.396842      50.396842      0.023534848    512000       
    191300   0.039936289   -21.340323      0.059903804   -21.28042       0.026355967    0.023857421    0.020207383    201.58737      50.396842      50.396842      0.02347359     512000       
    191400   0.040162514   -21.340331      0.060243138   -21.280088      0.027122475    0.024781966    0.029566481    201.58737      50.396842      50.396842      0.027156974    512000       
    191500   0.040071429   -21.339865      0.060106512   -21.279759      0.033238276    0.028789465    0.028356928    201.58737      50.396842      50.396842      0.030128223    512000       
    191600   0.040031525   -21.339696      0.060046656   -21.279649      0.027998384    0.030127252    0.035238027    201.58737      50.396842      50.396842      0.031121221    512000       
    191700   0.039878452   -21.339847      0.059817049   -21.28003       0.029646509    0.028696103    0.028810182    201.58737      50.396842      50.396842      0.029050932    512000       
    191800   0.039946361   -21.33968       0.059918912   -21.279761      0.024627597    0.026353616    0.025193178    201.58737      50.396842      50.396842      0.025391464    512000       
    191900   0.039916131   -21.339786      0.059873567   -21.279913      0.024240355    0.026708534    0.026504931    201.58737      50.396842      50.396842      0.02581794     512000       
    192000   0.04004292    -21.339898      0.060063749   -21.279834      0.023555001    0.027966944    0.025532833    201.58737      50.396842      50.396842      0.025684926    512000       
    192100   0.040086464   -21.339888      0.060129065   -21.279759      0.022118447    0.02047682     0.022020844    201.58737      50.396842      50.396842      0.021538704    512000       
    192200   0.0400868     -21.339789      0.060129568   -21.27966       0.027403742    0.028959303    0.026073106    201.58737      50.396842      50.396842      0.027478717    512000       
    192300   0.039924216   -21.339926      0.059885694   -21.280041      0.030127409    0.025030172    0.030962976    201.58737      50.396842      50.396842      0.028706852    512000       
    192400   0.040096984   -21.339978      0.060144845   -21.279833      0.029934983    0.030896957    0.02519516     201.58737      50.396842      50.396842      0.0286757      512000       
    192500   0.03990566    -21.339698      0.059857862   -21.27984       0.028443618    0.025455642    0.02755219     201.58737      50.396842      50.396842      0.027150483    512000       
    192600   0.040091453   -21.339617      0.060136547   -21.279481      0.034467718    0.024699934    0.028804382    201.58737      50.396842      50.396842      0.029324012    512000       
    192700   0.040108654   -21.339604      0.060162349   -21.279442      0.029567567    0.029431348    0.027401696    201.58737      50.396842      50.396842      0.028800204    512000       
    192800   0.040043422   -21.339694      0.060064502   -21.27963       0.033438679    0.030137712    0.027018334    201.58737      50.396842      50.396842      0.030198241    512000       
    192900   0.040112545   -21.33973       0.060168185   -21.279562      0.027721153    0.028132366    0.028002095    201.58737      50.396842      50.396842      0.027951871    512000       
    193000   0.040065996   -21.339586      0.060098363   -21.279488      0.028168263    0.032148861    0.024199073    201.58737      50.396842      50.396842      0.028172065    512000       
    193100   0.040160566   -21.339564      0.060240215   -21.279324      0.025315705    0.024444199    0.023220831    201.58737      50.396842      50.396842      0.024326912    512000       
    193200   0.04012106    -21.33983       0.060180958   -21.279649      0.024532445    0.026880041    0.024047467    201.58737      50.396842      50.396842      0.025153318    512000       
    193300   0.040034729   -21.339538      0.060051463   -21.279487      0.027852629    0.02430426     0.024406168    201.58737      50.396842      50.396842      0.025521019    512000       
    193400   0.039778656   -21.339538      0.059667357   -21.27987       0.023985718    0.024279722    0.026043124    201.58737      50.396842      50.396842      0.024769521    512000       
    193500   0.040030109   -21.339588      0.060044533   -21.279544      0.026191303    0.031708172    0.024000221    201.58737      50.396842      50.396842      0.027299899    512000       
    193600   0.040068592   -21.339492      0.060102257   -21.27939       0.028762727    0.024302273    0.025390426    201.58737      50.396842      50.396842      0.026151809    512000       
    193700   0.040079308   -21.33962       0.06011833    -21.279501      0.027752848    0.025816385    0.02817993     201.58737      50.396842      50.396842      0.027249721    512000       
    193800   0.040041946   -21.339435      0.060062287   -21.279373      0.027373491    0.028667011    0.027528639    201.58737      50.396842      50.396842      0.02785638     512000       
    193900   0.040141318   -21.339506      0.060211345   -21.279294      0.026259963    0.029973052    0.027869102    201.58737      50.396842      50.396842      0.028034039    512000       
    194000   0.040069856   -21.339381      0.060104153   -21.279277      0.029626937    0.023458807    0.021584631    201.58737      50.396842      50.396842      0.024890125    512000       
    194100   0.039922054   -21.339526      0.059882451   -21.279644      0.027711471    0.024669411    0.027214788    201.58737      50.396842      50.396842      0.02653189     512000       
    194200   0.039967805   -21.339399      0.059951078   -21.279447      0.026620049    0.027355315    0.028132287    201.58737      50.396842      50.396842      0.027369217    512000       
    194300   0.039805651   -21.339426      0.059707849   -21.279718      0.026764711    0.022225844    0.021932008    201.58737      50.396842      50.396842      0.023640855    512000       
    194400   0.039797992   -21.339256      0.059696361   -21.27956       0.024745871    0.02509233     0.025037263    201.58737      50.396842      50.396842      0.024958488    512000       
    194500   0.040021772   -21.339345      0.060032027   -21.279313      0.026572548    0.024784115    0.025235975    201.58737      50.396842      50.396842      0.02553088     512000       
    194600   0.039806734   -21.339183      0.059709474   -21.279474      0.028124609    0.024948677    0.023464736    201.58737      50.396842      50.396842      0.025512674    512000       
    194700   0.040017446   -21.339329      0.060025538   -21.279303      0.029105858    0.031404671    0.030268064    201.58737      50.396842      50.396842      0.030259531    512000       
    194800   0.040012606   -21.339071      0.060018279   -21.279053      0.027684478    0.024073998    0.029203223    201.58737      50.396842      50.396842      0.026987233    512000       
    194900   0.040135221   -21.339365      0.060202199   -21.279163      0.018261243    0.022999536    0.020629737    201.58737      50.396842      50.396842      0.020630172    512000       
    195000   0.039999894   -21.339305      0.059999211   -21.279305      0.025435717    0.02563244     0.023207792    201.58737      50.396842      50.396842      0.02475865     512000       
    195100   0.040043026   -21.339408      0.060063908   -21.279344      0.027859991    0.019118938    0.025537865    201.58737      50.396842      50.396842      0.024172264    512000       
    195200   0.039919731   -21.339203      0.059878968   -21.279324      0.023839649    0.02477962     0.021986259    201.58737      50.396842      50.396842      0.023535176    512000       
    195300   0.039931188   -21.33917       0.059896153   -21.279274      0.028960281    0.024026254    0.024967257    201.58737      50.396842      50.396842      0.025984597    512000       
    195400   0.040228732   -21.339         0.060342464   -21.278657      0.02598358     0.027900732    0.025539075    201.58737      50.396842      50.396842      0.026474462    512000       
    195500   0.039973155   -21.339127      0.059959103   -21.279168      0.022979775    0.021216857    0.026578851    201.58737      50.396842      50.396842      0.023591828    512000       
    195600   0.039906975   -21.339222      0.059859833   -21.279362      0.020302166    0.021149464    0.026247396    201.58737      50.396842      50.396842      0.022566342    512000       
    195700   0.03996164    -21.339032      0.05994183    -21.27909       0.023808705    0.023244618    0.022687401    201.58737      50.396842      50.396842      0.023246908    512000       
    195800   0.039951527   -21.339229      0.059926661   -21.279303      0.022323216    0.018638186    0.019319331    201.58737      50.396842      50.396842      0.020093578    512000       
    195900   0.040127766   -21.339084      0.060191017   -21.278893      0.02754876     0.025498716    0.021478302    201.58737      50.396842      50.396842      0.024841926    512000       
    196000   0.039847173   -21.338921      0.059770131   -21.279151      0.024667349    0.028826666    0.024754908    201.58737      50.396842      50.396842      0.026082974    512000       
    196100   0.040177752   -21.338839      0.060265995   -21.278573      0.027115572    0.025564462    0.020987144    201.58737      50.396842      50.396842      0.024555726    512000       
    196200   0.039999381   -21.338885      0.059998441   -21.278886      0.023087378    0.024345895    0.028639658    201.58737      50.396842      50.396842      0.025357644    512000       
    196300   0.040019172   -21.338909      0.060028127   -21.278881      0.026637744    0.028396374    0.025516371    201.58737      50.396842      50.396842      0.026850163    512000       
    196400   0.039943257   -21.338843      0.059914256   -21.278929      0.024805261    0.02717449     0.018863959    201.58737      50.396842      50.396842      0.02361457     512000       
    196500   0.040053885   -21.338785      0.060080196   -21.278705      0.023864931    0.022069489    0.027692878    201.58737      50.396842      50.396842      0.024542433    512000       
    196600   0.040321104   -21.339118      0.06048102    -21.278637      0.02295495     0.023726205    0.021357866    201.58737      50.396842      50.396842      0.022679674    512000       
    196700   0.040057542   -21.339065      0.060085682   -21.27898       0.026649842    0.027411138    0.025277628    201.58737      50.396842      50.396842      0.026446203    512000       
    196800   0.039905086   -21.338851      0.059857      -21.278994      0.02048214     0.026345405    0.027127741    201.58737      50.396842      50.396842      0.024651762    512000       
    196900   0.039987683   -21.33862       0.059980895   -21.278639      0.021529908    0.024960124    0.021700763    201.58737      50.396842      50.396842      0.022730265    512000       
    197000   0.039863735   -21.338981      0.059794974   -21.279186      0.021322371    0.024657051    0.025252574    201.58737      50.396842      50.396842      0.023743999    512000       
    197100   0.039998901   -21.33885       0.059997722   -21.278852      0.021839983    0.02556016     0.02113065     201.58737      50.396842      50.396842      0.022843598    512000       
    197200   0.040076975   -21.338915      0.060114831   -21.2788        0.018887612    0.021325634    0.023342486    201.58737      50.396842      50.396842      0.021185244    512000       
    197300   0.039989278   -21.338973      0.059983287   -21.27899       0.024107559    0.024819894    0.031189012    201.58737      50.396842      50.396842      0.026705488    512000       
    197400   0.039984406   -21.338788      0.059975979   -21.278812      0.024213534    0.030327551    0.026119602    201.58737      50.396842      50.396842      0.026886896    512000       
    197500   0.039778719   -21.33876       0.059667451   -21.279093      0.026082952    0.024982807    0.030074469    201.58737      50.396842      50.396842      0.027046743    512000       
    197600   0.03984028    -21.338761      0.059759792   -21.279001      0.026826811    0.026627097    0.021611233    201.58737      50.396842      50.396842      0.025021714    512000       
    197700   0.040042136   -21.338602      0.060062573   -21.27854       0.02559247     0.022394571    0.030991215    201.58737      50.396842      50.396842      0.026326085    512000       
    197800   0.039874595   -21.338698      0.059811264   -21.278887      0.031430086    0.026981705    0.024746854    201.58737      50.396842      50.396842      0.027719548    512000       
    197900   0.039969615   -21.338827      0.059953792   -21.278873      0.028350956    0.022010076    0.023827041    201.58737      50.396842      50.396842      0.024729358    512000       
    198000   0.039640472   -21.33842       0.059460083   -21.27896       0.021973779    0.021490452    0.021673119    201.58737      50.396842      50.396842      0.02171245     512000       
    198100   0.03993704    -21.338383      0.05990493    -21.278478      0.026044272    0.022454236    0.027083064    201.58737      50.396842      50.396842      0.025193857    512000       
    198200   0.039974306   -21.338538      0.059960829   -21.278577      0.023522489    0.030188993    0.02458612     201.58737      50.396842      50.396842      0.026099201    512000       
    198300   0.040033097   -21.338543      0.060049014   -21.278494      0.024924576    0.020698283    0.029231788    201.58737      50.396842      50.396842      0.024951549    512000       
    198400   0.039922636   -21.338299      0.059883324   -21.278416      0.02338035     0.020934111    0.028056726    201.58737      50.396842      50.396842      0.024123729    512000       
    198500   0.040123724   -21.338447      0.060184953   -21.278262      0.025709939    0.028359612    0.026914655    201.58737      50.396842      50.396842      0.026994735    512000       
    198600   0.039960335   -21.338309      0.059939873   -21.278369      0.022354153    0.021924421    0.030481853    201.58737      50.396842      50.396842      0.024920142    512000       
    198700   0.039967937   -21.338369      0.059951275   -21.278418      0.028632406    0.024239195    0.017159576    201.58737      50.396842      50.396842      0.023343726    512000       
    198800   0.040257226   -21.338601      0.060385204   -21.278216      0.023972447    0.024518778    0.023621367    201.58737      50.396842      50.396842      0.024037531    512000       
    198900   0.040077999   -21.338604      0.060116367   -21.278488      0.021812248    0.020783088    0.024427295    201.58737      50.396842      50.396842      0.022340877    512000       
    199000   0.040013211   -21.338316      0.060019186   -21.278297      0.027014734    0.019970383    0.022372306    201.58737      50.396842      50.396842      0.023119141    512000       
    199100   0.039793242   -21.338678      0.059689236   -21.278989      0.028847737    0.025290804    0.026363823    201.58737      50.396842      50.396842      0.026834121    512000       
    199200   0.039916585   -21.338376      0.059874249   -21.278502      0.021456299    0.020199207    0.021560759    201.58737      50.396842      50.396842      0.021072088    512000       
    199300   0.039784876   -21.338454      0.059676688   -21.278777      0.023122014    0.025352537    0.023862152    201.58737      50.396842      50.396842      0.024112235    512000       
    199400   0.039906769   -21.338232      0.059859524   -21.278373      0.022311115    0.02503214     0.020387151    201.58737      50.396842      50.396842      0.022576802    512000       
    199500   0.039972337   -21.338255      0.059957875   -21.278297      0.017464003    0.021993751    0.028243821    201.58737      50.396842      50.396842      0.022567192    512000       
    199600   0.039953581   -21.338106      0.059929741   -21.278177      0.022794259    0.024911542    0.016671125    201.58737      50.396842      50.396842      0.021458975    512000       
    199700   0.039785935   -21.338287      0.059678276   -21.278609      0.019396038    0.022176264    0.025549006    201.58737      50.396842      50.396842      0.022373769    512000       
    199800   0.039801759   -21.338252      0.059702011   -21.27855       0.021780731    0.025759952    0.021630365    201.58737      50.396842      50.396842      0.023057016    512000       
    199900   0.04007952    -21.338193      0.060118649   -21.278074      0.019541209    0.018587043    0.024410817    201.58737      50.396842      50.396842      0.020846356    512000       
    200000   0.039836955   -21.338287      0.059754805   -21.278532      0.020764188    0.021686187    0.022814835    201.58737      50.396842      50.396842      0.02175507     512000       
Loop time of 404.436 on 1 procs for 30000 steps with 95168 atoms

Performance: 6408.924 tau/day, 74.177 timesteps/s, 7.059 Matom-step/s
100.0% CPU use with 1 MPI tasks x 1 OpenMP threads

MPI task timing breakdown:
Section |  min time  |  avg time  |  max time  |%varavg| %total
---------------------------------------------------------------
Pair    | 330.91     | 330.91     | 330.91     |   0.0 | 81.82
Neigh   | 5.4643     | 5.4643     | 5.4643     |   0.0 |  1.35
Comm    | 6.0471     | 6.0471     | 6.0471     |   0.0 |  1.50
Output  | 0.38246    | 0.38246    | 0.38246    |   0.0 |  0.09
Modify  | 47.759     | 47.759     | 47.759     |   0.0 | 11.81
Other   |            | 13.87      |            |       |  3.43

Nlocal:          95168 ave       95168 max       95168 min
Histogram: 1 0 0 0 0 0 0 0 0 0
Nghost:          23820 ave       23820 max       23820 min
Histogram: 1 0 0 0 0 0 0 0 0 0
Neighs:    1.11486e+06 ave 1.11486e+06 max 1.11486e+06 min
Histogram: 1 0 0 0 0 0 0 0 0 0

Total # of neighbors = 1114862
Ave neighs/atom = 11.714673
Neighbor list builds = 87
Dangerous builds = 0
unfix           1

write_data      s1.data
System init for write_data ...
Generated 0 of 36 mixed pair_coeff terms from geometric mixing rule
WARNING: Not all mixed pair coeffs generated from mixing. Use write_data with 'pair ij' option to store all pair coeffs. (src/write_data.cpp:364)
quit
