LAMMPS (19 Nov 2024 - Development - patch_2Jul2021-14588-g93bfae9507)
OMP_NUM_THREADS environment is not set. Defaulting to 1 thread. (src/comm.cpp:99)
  using 1 OpenMP thread(s) per MPI task
######### 3d Lennard-Jones for polymeric system #############
######## simulting polymer brush by "grafting from" approach##
##### study the effect of iniatior density embedded in the #### #### substrate on chain length disbribution and polydispersity###

units		lj
atom_style	atomic
boundary        p p p
########## configure the simulation setup ############
read_data	resultingsilk.data nocoeff
Reading data file ...
  orthogonal box = (43.371004 11.038044 11.051881) to (158.21636 39.358798 39.344961)
  1 by 1 by 1 MPI processor grid
WARNING: Pair style lj/cut/bump in data file differs from currently defined pair style zero (src/read_data.cpp:786)
  reading atoms ...
  51803 atoms
  reading velocities ...
  51803 velocities
  read_data CPU = 0.741 seconds
variable        rho equal 2/(2*2^(1./6.))^3

variable        dimx equal 16*4
variable        dimy equal 8*2
variable        dimz equal 8*2

region	end block  0 2 INF INF INF INF units box
#delete_atoms	region end

#lattice	sc 0.125
#region	mybox block 0 50 0 30 0 30 units box
#create_atoms 5 box

#mass (soft segment = 1.0 / hard segment = 1.0)
variable        mass5 equal 1.0
mass            * 1.0
mass            1 0.2
mass            2 0.2
mass            3 0.1
mass            4 0.1
mass            5 0.35 #solvent mass

mass            6 0.1
mass            7 1.0
mass            8 1.0

###### randomly reset some of the bottom substrate atoms to radical atoms ####

group           patch4 type 4
8192 atoms in group patch4
group           patch1 type 1
2048 atoms in group patch1
group           patch2 type 2
2048 atoms in group patch2
group           patch3 type 3
8192 atoms in group patch3
group           patch6 type 6
16384 atoms in group patch6
group           patch5 type 5
2715 atoms in group patch5
group           patch7 type 7
6112 atoms in group patch7
group           patch8 type 8
6112 atoms in group patch8
#delete_atoms   group patch6
group           patch9 type 9
0 atoms in group patch9
delete_atoms    group patch9
Deleted 0 atoms, new total = 51803

#temperature is 0.028 before
variable	t equal 0.04
variable	tf equal 0.04
velocity	all create $t 12345
velocity	all create 0.04 12345


#c is 2.35 before for chains, 1.9 for very compact
variable        c equal 1.8
variable        s equal $c/2^(1./6.)
variable        s equal 1.8/2^(1./6.)

#variable        m equal ${shift}/2^(1./6.)
#variable        n equal $m*1.6

variable        u equal 1.0
variable        v equal $u/2^(1./6.)
variable        v equal 1/2^(1./6.)

variable        p equal 1.0
variable        q equal $p/2^(1./6.)
variable        q equal 1/2^(1./6.)

variable        h equal 1.0
variable        k equal $h/2^(1./6.)
variable        k equal 1/2^(1./6.)

variable        h2 equal 1.0
variable        k2 equal ${h2}/2^(1./6.)
variable        k2 equal 1/2^(1./6.)

variable        h3 equal sqrt(2.0) # 1.414
variable        k3 equal ${h3}/2^(1./6.)
variable        k3 equal 1.4142135623731/2^(1./6.)

variable        b equal 0.2
variable        b1 equal 0.14

variable        c3 equal 2.0
variable        s3 equal ${c3}/2^(1./6.)
variable        s3 equal 2/2^(1./6.)

variable        c5 equal 1.6
variable        s5 equal ${c5}/2^(1./6.)
variable        s5 equal 1.6/2^(1./6.)

variable        h4 equal 0.5
variable        k4 equal ${h4}/2^(1./6.)
variable        k4 equal 0.5/2^(1./6.)

variable        h5 equal 0.50
variable        k5 equal ${h5}/2^(1./6.)
variable        k5 equal 0.5/2^(1./6.)

variable        c4 equal 0.707
variable        s4 equal ${c4}/2^(1./6.)
variable        s4 equal 0.707/2^(1./6.)

variable        c6 equal 2.5
variable        s6 equal ${c6}/2^(1./6.)
variable        s6 equal 2.5/2^(1./6.)

variable        c7 equal 2.8
variable        s7 equal ${c7}/2^(1./6.)
variable        s7 equal 2.8/2^(1./6.)

#pair_style     lj/cut/bump/smooth/linear 2.5
pair_style      lj/cut/bump 2.8 #cutoff 2.8
pair_coeff      * * 0.02 $v 1.0 1 0 $u
pair_coeff      * * 0.02 0.890898718140339 1.0 1 0 $u
pair_coeff      * * 0.02 0.890898718140339 1.0 1 0 1

#backbone
#in hard segment
pair_coeff      1 1 20.0 $s  1.0 1 0 1.8 #1.8 only repulsion
pair_coeff      1 1 20.0 1.60361769265261  1.0 1 0 1.8 
pair_coeff      2 2 20.0 $s  1.0 1 0 1.8 #1.8 only repulsion
pair_coeff      2 2 20.0 1.60361769265261  1.0 1 0 1.8 
pair_coeff      1 2 20.0 ${k2} 1.2 1 1.0 1.8 #1 strong bond
pair_coeff      1 2 20.0 0.890898718140339 1.2 1 1.0 1.8 

#connect soft segments in outside and inside hard segments
pair_coeff      2 7 20.0 ${k2} 1.2 1 1.0 1.8 #1 strong bond
pair_coeff      2 7 20.0 0.890898718140339 1.2 1 1.0 1.8 
pair_coeff      1 8 20.0 ${k2} 1.2 1 1.0 1.8 #1 strong bond
pair_coeff      1 8 20.0 0.890898718140339 1.2 1 1.0 1.8 
pair_coeff      1 7 20.0 $s  1.0 1 0 1.8 #1.8 only repulsion
pair_coeff      1 7 20.0 1.60361769265261  1.0 1 0 1.8 
pair_coeff      2 8 20.0 $s  1.0 1 0 1.8 #1.8 only repulsion
pair_coeff      2 8 20.0 1.60361769265261  1.0 1 0 1.8 

#soft segment (distance between soft/soft = 2.2)
pair_coeff      7 7 20.0 $s  1.0 1 0 1.8 #1.8 only repulsion
pair_coeff      7 7 20.0 1.60361769265261  1.0 1 0 1.8 
pair_coeff      8 8 20.0 $s  1.0 1 0 1.8 #1.8 only repulsion
pair_coeff      8 8 20.0 1.60361769265261  1.0 1 0 1.8 
pair_coeff      7 8 10.0 ${k2} 1.2 0.79 1.0 2.8 #1 strong bond/2.2 attraction
pair_coeff      7 8 10.0 0.890898718140339 1.2 0.79 1.0 2.8 

#intramolecular interactions in hard segments
pair_coeff      1 3 20.0 ${k4} 1.2 1 2.0 1.118 #0.5 strong bond
pair_coeff      1 3 20.0 0.44544935907017 1.2 1 2.0 1.118 
pair_coeff      2 3 20.0 ${k4} 1.2 1 2.0 1.118 #0.5 strong bond
pair_coeff      2 3 20.0 0.44544935907017 1.2 1 2.0 1.118 
pair_coeff      1 4 20.0 ${k4} 1.2 1 2.0 1.118 #0.5 strong bond
pair_coeff      1 4 20.0 0.44544935907017 1.2 1 2.0 1.118 
pair_coeff      2 4 20.0 ${k4} 1.2 1 2.0 1.118 #0.5 strong bond
pair_coeff      2 4 20.0 0.44544935907017 1.2 1 2.0 1.118 
pair_coeff      1*2 6 20.0 ${s4} 1.2 1 2.0 1.225 #0.707 strong bond
pair_coeff      1*2 6 20.0 0.62986539372522 1.2 1 2.0 1.225 

pair_coeff      3 4 20.0 ${s4} 1.2 1 2.0 1.225 #0.707 weak bond ####
pair_coeff      3 4 20.0 0.62986539372522 1.2 1 2.0 1.225 
pair_coeff      3*4 6 20.0 ${k4} 1.2 1 2.0 1.118 #0.5 strong bond
pair_coeff      3*4 6 20.0 0.44544935907017 1.2 1 2.0 1.118 
#pair_coeff      3*4 6 0.01 ${k5} 1.2 1 0.0 0.50 #0.50 only repulsion ####

#pair_coeff      3 3 10.0 ${k2} 1.2 1 1.0 1.2 #1 strong bond_initial
#pair_coeff      4 4 10.0 ${k2} 1.2 1 1.0 1.2 #1 strong bond_initial

pair_coeff      6 6 5.0 ${k2} 1.16 1.0 2.0 1.12 #1 strong bond ####
pair_coeff      6 6 5.0 0.890898718140339 1.16 1.0 2.0 1.12 

#intermolecular interactions between soft and hard segments

pair_coeff      3*4 7 0.01 ${k4} 1.2 1 0.0 0.5 #0.5 only repulsion
pair_coeff      3*4 7 0.01 0.44544935907017 1.2 1 0.0 0.5 
pair_coeff      3*4 8 0.01 ${k4} 1.2 1 0.0 0.5 #0.5 only repulsion
pair_coeff      3*4 8 0.01 0.44544935907017 1.2 1 0.0 0.5 
pair_coeff      6 7 0.01 ${k4} 1.2 1 0.0 0.5 #0.5 only repulsion
pair_coeff      6 7 0.01 0.44544935907017 1.2 1 0.0 0.5 
pair_coeff      6 8 0.01 ${k4} 1.2 1 0.0 0.5 #0.5 only repulsion
pair_coeff      6 8 0.01 0.44544935907017 1.2 1 0.0 0.5 
#velocity       all set NULL 0.0 0.0
#fix            11 all setforce NULL 0.0 0.0

#turn on hydrophobic interaction of solvent particles
variable        c8 equal 2.0
variable        s8 equal ${c8}/2^(1./6.)
variable        s8 equal 2/2^(1./6.)

variable        c9 equal 2.2
variable        s9 equal ${c9}/2^(1./6.)
variable        s9 equal 2.2/2^(1./6.)

variable        c10 equal 0.3
variable        s10 equal ${c10}/2^(1./6.)
variable        s10 equal 0.3/2^(1./6.)

pair_coeff      1*2 5 0.05 ${s9} 1.2 1 0.0 2.2 # 2.2 only repulsion
pair_coeff      1*2 5 0.05 1.95997717990875 1.2 1 0.0 2.2 

pair_coeff      3*4 5 0.01 ${s10} 1.2 1 0.0 0.3 #only repulsion
pair_coeff      3*4 5 0.01 0.267269615442102 1.2 1 0.0 0.3 
pair_coeff      5 6 0.01 ${s10} 1.2 1 0.0 0.3 #only repulsion
pair_coeff      5 6 0.01 0.267269615442102 1.2 1 0.0 0.3 

#turn on 33bond and 44bond
pair_coeff      3 3 2.5 ${k2} 1.1 0.415 2.0 2.8 #1 strong bond
pair_coeff      3 3 2.5 0.890898718140339 1.1 0.415 2.0 2.8 
pair_coeff      4 4 2.5 ${k2} 1.1 0.475 2.0 2.8 #1 strong bond
pair_coeff      4 4 2.5 0.890898718140339 1.1 0.475 2.0 2.8 

#turn on hydrophilic interaction of solvent particles
pair_coeff      5 5 0.05 ${s9} 1.2 1 0.0 2.2 # 2.2 only repulsion
pair_coeff      5 5 0.05 1.95997717990875 1.2 1 0.0 2.2 

pair_coeff      5 7 0.05 ${s8} 1.2 1 0.0 2.8 # 2.0 attraction
pair_coeff      5 7 0.05 1.78179743628068 1.2 1 0.0 2.8 
pair_coeff      5 8 0.05 ${s8} 1.2 1 0.0 2.8 # 2.0 attraction
pair_coeff      5 8 0.05 1.78179743628068 1.2 1 0.0 2.8 

pair_modify     tail no
pair_modify     shift yes
neighbor        0.5 bin
neigh_modify    every 1 delay 0 check yes


timestep	0.001
thermo		1000
thermo_style    custom step temp pe ke etotal pxx pyy pzz lx ly lz press vol


####################relaxation#####################################
fix             1 all npt temp $t $t 0.01 x 0.0 0.0 5.0 y 0.0 0.0 5.0 z 0.0 0.0 5.0
fix             1 all npt temp 0.04 $t 0.01 x 0.0 0.0 5.0 y 0.0 0.0 5.0 z 0.0 0.0 5.0
fix             1 all npt temp 0.04 0.04 0.01 x 0.0 0.0 5.0 y 0.0 0.0 5.0 z 0.0 0.0 5.0
run		100000
Generated 0 of 36 mixed pair_coeff terms from geometric mixing rule
Neighbor list info ...
  update: every = 1 steps, delay = 0 steps, check = yes
  max neighbors/atom: 2000, page size: 100000
  master list distance cutoff = 3.3
  ghost atom cutoff = 3.3
  binsize = 1.65, bins = 70 18 18
  1 neighbor lists, perpetual/occasional/extra = 1 0 0
  (1) pair lj/cut/bump, perpetual
      attributes: half, newton on
      pair build: half/bin/atomonly/newton
      stencil: half/bin/3d
      bin: standard
Per MPI rank memory allocation (min/avg/max) = 20.6 | 20.6 | 20.6 Mbytes
   Step          Temp          PotEng         KinEng         TotEng          Pxx            Pyy            Pzz             Lx             Ly             Lz           Press          Volume    
         0   0.04          -36.320216      0.059998842   -36.260217      0.018979934   -0.020565199   -0.032900255    114.84536      28.320754      28.29308      -0.011495174    92023.448    
      1000   0.040151293   -36.319623      0.060225776   -36.259398      0.029896577    0.014838414   -0.0033785326   115.14451      28.373332      28.360108      0.013785486    92653.419    
      2000   0.039784543   -36.319641      0.059675663   -36.259965     -0.021647858   -0.026654825    0.018429907    115.23694      28.381767      28.386356     -0.0099575918   92841.209    
      3000   0.040265089   -36.320242      0.060396468   -36.259846     -0.0070388856  -0.058364373    0.011000287    115.24119      28.39661       28.399112     -0.018134324    92934.929    
      4000   0.040349537   -36.320923      0.060523137   -36.2604       -0.0031219493  -0.0089946845  -0.088250095    115.21583      28.39711       28.411078     -0.033455576    92955.266    
      5000   0.040089548   -36.320285      0.060133161   -36.260152     -0.026282016   -0.062956518   -0.054978422    115.23459      28.407215      28.398851     -0.048072319    92963.46     
      6000   0.03998473    -36.320842      0.059975937   -36.260866     -0.026986461    0.031793917   -0.038105362    115.3144       28.394667      28.397083     -0.011099302    92980.97     
      7000   0.039904875   -36.32091       0.059856158   -36.261054     -0.016630692   -0.011877319    0.010222416    115.34168      28.410386      28.395848     -0.0060951983   93050.404    
      8000   0.040089357   -36.32128       0.060132874   -36.261147     -0.002809991   -0.0085788232  -0.02207916     115.35625      28.409317      28.400326     -0.011155991    93073.325    
      9000   0.040101667   -36.321544      0.060151339   -36.261393      0.0097432772  -0.01465778     0.0040482115   115.41219      28.385845      28.429973     -0.00028876389  93138.653    
     10000   0.040379769   -36.32207       0.060568484   -36.261501     -0.021123467    0.01720576     0.001118646    115.48419      28.365016      28.439507     -0.0009330201   93159.603    
     11000   0.040366725   -36.322654      0.060548918   -36.262106     -0.020738132    0.020489129   -0.0085517563   115.49744      28.369458      28.449139     -0.0029335867   93216.443    
     12000   0.040021835   -36.323131      0.060031594   -36.263099     -0.01770887     0.0013417161  -0.026944736    115.58089      28.384409      28.410617     -0.014437297    93206.576    
     13000   0.039928083   -36.323123      0.059890968   -36.263232     -0.032685203    0.0073058088   0.025549577    115.65712      28.405401      28.387454      5.6727688e-05  93260.93     
     14000   0.039926411   -36.323251      0.05988846    -36.263363      0.0070938008   0.029202596    0.020707089    115.65183      28.422035      28.360729      0.019001162    93223.431    
     15000   0.040335287   -36.323648      0.060501763   -36.263146     -0.038680396   -0.021835457   -0.054664909    115.6867       28.427234      28.34038      -0.038393588    93201.675    
     16000   0.040060788   -36.324349      0.060090021   -36.264259     -0.0040192051   0.0098359938   0.0027161138   115.70773      28.429252      28.33639       0.0028443008   93212.106    
     17000   0.040172333   -36.323786      0.060257336   -36.263528     -0.031381631   -0.034405513   -0.013940047    115.76195      28.431054      28.33079      -0.02657573     93243.268    
     18000   0.03984861    -36.323765      0.059771762   -36.263994     -0.026658398   -0.050860914   -0.039585156    115.89427      28.414334      28.29629      -0.039034823    93181.341    
     19000   0.040004462   -36.323588      0.060005535   -36.263582      0.024117841   -0.02558834     0.0051330346   115.95201      28.41419       28.305139      0.0012208453   93256.446    
     20000   0.040183965   -36.324214      0.060274784   -36.263939      0.0052944117  -0.0083126799  -0.015693391    116.06158      28.401011      28.279175     -0.0062372196   93215.691    
     21000   0.0400784     -36.324321      0.06011644    -36.264205     -0.015851942    0.004215213    0.017080988    116.08975      28.403364      28.275159      0.0018147529   93232.795    
     22000   0.040084765   -36.324249      0.060125986   -36.264123      0.028137979    0.0028797885   0.0028204371   116.06252      28.406386      28.277426      0.011279402    93228.315    
     23000   0.04015013    -36.324966      0.060224033   -36.264742      0.0026572589   0.04868828     0.0068077798   115.99017      28.4142        28.257349      0.01938444     93129.664    
     24000   0.040164171   -36.324632      0.060245094   -36.264387      0.027114377    0.029154888    0.051322939    115.95166      28.387192      28.27665       0.035864068    93073.785    
     25000   0.040018888   -36.32467       0.060027173   -36.264642      0.043394685    0.042154872    0.052817568    115.8696       28.406712      28.279301      0.046122375    93080.598    
     26000   0.040114343   -36.324796      0.060170353   -36.264626      0.020833507   -0.0040739336  -0.025771054    115.97835      28.391396      28.281459     -0.0030038271   93124.826    
     27000   0.039997709   -36.325327      0.059995406   -36.265332     -0.008495725   -0.0087365787   0.012041256    115.98131      28.379995      28.280521     -0.0017303491   93086.72     
     28000   0.040061884   -36.325398      0.060091666   -36.265306     -0.043358529   -0.01187762    -0.0572708      115.9532       28.375198      28.270247     -0.037502316    93014.624    
     29000   0.040300292   -36.325523      0.060449271   -36.265073      0.0091092773  -0.0105598      0.0021526057   116.02905      28.365992      28.259961      0.0002340276   93011.422    
     30000   0.040225865   -36.325493      0.060337633   -36.265156     -0.047763848   -0.0031181928  -0.02055698     115.9724       28.355524      28.266312     -0.023813007    92952.585    
     31000   0.039996287   -36.325632      0.059993272   -36.265639     -0.022089809    0.024773943    0.041573697    115.85496      28.358972      28.265907      0.014752611    92868.417    
     32000   0.039973739   -36.325622      0.059959451   -36.265662      0.024564391   -0.044819658    0.032494454    115.86703      28.353669      28.284848      0.0040797289   92922.954    
     33000   0.0399637     -36.325409      0.059944393   -36.265464     -0.035980154   -0.0038637382  -0.014671782    115.88923      28.362242      28.281217     -0.018171892    92956.924    
     34000   0.040022578   -36.325669      0.060032707   -36.265636      0.012561875   -0.012492022    0.0045533958   115.88338      28.35625       28.264731      0.001541083    92878.413    
     35000   0.039932368   -36.325263      0.059897395   -36.265366      0.0087436868  -0.0055953059   0.018114232    115.95263      28.358187      28.259245      0.0070875377   92922.225    
     36000   0.040042625   -36.326005      0.060062778   -36.265943      0.025353897   -0.010582537   -0.0014555027   115.95806      28.351183      28.248689      0.004438619    92868.925    
     37000   0.039943689   -36.325706      0.059914376   -36.265791      0.012799589    0.0077710011  -0.0032482611   116.01768      28.343392      28.257331      0.0057741097   92919.558    
     38000   0.040191408   -36.326254      0.060285948   -36.265968      0.015297386    0.023398492    0.012427795    116.02884      28.336146      28.243395      0.017041224    92858.919    
     39000   0.040168971   -36.326389      0.060252294   -36.266137     -0.017536536   -0.037193822   -0.062359016    116.09498      28.34663       28.229315     -0.039029791    92899.891    
     40000   0.039956519   -36.325989      0.059933622   -36.266055      0.029100877    0.013124083    0.0011390723   116.1137       28.361314      28.224979      0.014454678    92948.724    
     41000   0.039978487   -36.326689      0.059966574   -36.266722     -0.024250699    0.023947405    0.04305341     116.05391      28.356584      28.217443      0.014250039    92860.572    
     42000   0.040007666   -36.326449      0.060010341   -36.266439      0.0230685      0.035608671   -0.03934267     116.05149      28.376288      28.209689      0.0064448336   92897.619    
     43000   0.040028153   -36.326838      0.06004107    -36.266797      0.0048350302  -0.0048564478  -0.010015548    116.11357      28.360883      28.2117       -0.0033456552   92903.481    
     44000   0.040009577   -36.326722      0.060013206   -36.266709     -0.0012484391   0.0033775912  -0.021568117    116.11347      28.355052      28.23273      -0.0064796551   92953.542    
     45000   0.039848827   -36.326407      0.059772087   -36.266635     -0.013344016    0.0020915935   0.0066511981   116.06676      28.351306      28.244949     -0.0015337414   92944.078    
     46000   0.040046603   -36.327113      0.060068745   -36.267045      0.014292612   -0.033132114   -0.037127072    116.14182      28.341395      28.235912     -0.018655525    92941.923    
     47000   0.039753886   -36.326597      0.059629678   -36.266967     -0.0019553564  -0.0019480603  -0.0055652605   116.16298      28.33394       28.234264     -0.0031562257   92928.983    
     48000   0.040048152   -36.32717       0.060071068   -36.267099     -0.0062470651  -0.02594231    -0.02555241     116.11447      28.330252      28.245785     -0.019247262    92915.988    
     49000   0.040118921   -36.326954      0.060177219   -36.266777     -0.011018578   -0.017652793   -0.051073599    116.19799      28.312599      28.253497     -0.026581657    92950.246    
     50000   0.039765551   -36.326678      0.059647175   -36.26703       0.033175998   -0.0031655198  -0.024927522    116.24972      28.31519       28.241456      0.0016943186   92960.507    
     51000   0.040050576   -36.327241      0.060074704   -36.267166      0.023196731    0.00040416367 -0.020755216    116.2113       28.329239      28.233828      0.00094855948  92950.783    
     52000   0.040029597   -36.32695       0.060043236   -36.266907      3.8688165e-06  0.0098028393   0.0084176512   116.19903      28.328426      28.244915      0.0060747864   92974.791    
     53000   0.03995955    -36.326755      0.059938168   -36.266817     -0.023642579   -0.030324006   -0.025954549    116.22029      28.344854      28.224789     -0.026640378    92979.432    
     54000   0.039901368   -36.32724       0.059850897   -36.267389      0.020219942   -0.00088194955  0.013149509    116.1866       28.351444      28.216321      0.010829167    92946.191    
     55000   0.040153369   -36.327237      0.060228891   -36.267008     -0.016338255   -0.005641539    0.026467328    116.23177      28.34041       28.219675      0.0014958446   92957.19     
     56000   0.039861898   -36.326974      0.059791693   -36.267183      0.026565096   -0.050313725    0.061338695    116.24071      28.319791      28.227106      0.012530022    92921.17     
     57000   0.039949999   -36.327255      0.059923842   -36.267331      0.019817491    0.010027678    0.045391007    116.21019      28.314663      28.215318      0.025078725    92841.161    
     58000   0.040213969   -36.327091      0.060319789   -36.266771     -0.03334647    -0.021384621   -0.0094138596   116.267        28.320344      28.196134     -0.02138165     92842.013    
     59000   0.039981123   -36.327348      0.059970526   -36.267377     -0.0081360987   0.039388157    0.030854942    116.23697      28.323693      28.187635      0.020702333    92801.03     
     60000   0.040075496   -36.327406      0.060112084   -36.267294     -0.028055541   -0.021125446    0.029473534    116.18487      28.325241      28.203385     -0.0065691511   92816.339    
     61000   0.039958081   -36.327478      0.059935964   -36.267542      0.0021133302  -0.017813246    0.010607317    116.21073      28.337062      28.215551     -0.0016975329   92915.807    
     62000   0.039932757   -36.327501      0.059897978   -36.267603     -0.0044359867   0.0024512608   0.03415763     116.14479      28.315658      28.244651      0.010724301    92888.641    
     63000   0.040033744   -36.32782       0.060049456   -36.267771      0.031332969    0.022381216    0.01823842     116.14257      28.3126        28.258259      0.023984202    92921.576    
     64000   0.040050026   -36.327658      0.060073879   -36.267584      0.00087197409  0.015877755    0.016378413    116.15838      28.311319      28.246941      0.011042714    92892.804    
     65000   0.040097741   -36.327569      0.06014545    -36.267424     -0.033857228    0.01560028    -0.02447361     116.18068      28.316401      28.249265     -0.014243519    92934.959    
     66000   0.039737409   -36.327446      0.059604962   -36.267841     -0.018723164   -0.017629964    0.028345534    116.16281      28.315672      28.257427     -0.0026691978   92945.121    
     67000   0.039852891   -36.328052      0.059778183   -36.268274      0.0037904252   0.023840242   -0.0071288108   116.22036      28.311178      28.271439      0.0068339523   93022.51     
     68000   0.039898545   -36.327642      0.059846663   -36.267795      0.011525514   -0.02575443     0.010557186    116.16601      28.320596      28.262293     -0.0012239102   92979.855    
     69000   0.039909989   -36.327778      0.059863828   -36.267915      0.024764701   -0.024858915   -0.046238973    116.10388      28.326186      28.268443     -0.015444396    92968.693    
     70000   0.039894996   -36.327719      0.059841339   -36.267878      0.039917151   -0.0020562542  -0.015327195    116.15446      28.314443      28.257841      0.0075112342   92935.767    
     71000   0.040352286   -36.328213      0.060527261   -36.267686      0.0061688754   0.018190058    0.043853474    116.25111      28.31225       28.247992      0.022737469    92973.473    
     72000   0.04004607    -36.32754       0.060067945   -36.267472     -0.016061164   -0.024766082   -0.016674403    116.26232      28.316234      28.239138     -0.019167216    92966.382    
     73000   0.0401434     -36.327921      0.060213938   -36.267707      0.008877418    0.026952596    0.026509336    116.21132      28.328338      28.240906      0.020779783    92971.138    
     74000   0.039844158   -36.328126      0.059765084   -36.268361      0.031090731    0.049315298   -0.0095820081   116.08754      28.319635      28.264086      0.023608007    92919.788    
     75000   0.040001301   -36.328035      0.060000793   -36.268034     -0.0076467371   0.044945462   -0.00071179006  116.13709      28.323549      28.270542      0.012195645    92993.535    
     76000   0.040163821   -36.328002      0.060244568   -36.267758     -0.0098011014  -0.0013601737  -0.0028551932   116.11102      28.318812      28.274537     -0.0046721561   92970.244    
     77000   0.040041729   -36.328408      0.060061433   -36.268347      0.022685256    0.035764083   -0.0024935109   116.11809      28.318171      28.269584      0.018651943    92957.51     
     78000   0.039989326   -36.328169      0.059982831   -36.268186      0.0048764063  -0.015399122   -0.01098389     116.11382      28.32318       28.258943     -0.0071688685   92935.547    
     79000   0.040135959   -36.328091      0.060202777   -36.267888     -0.0092314478  -0.02871295    -0.016982727    116.09039      28.334605      28.233206     -0.018309042    92869.615    
     80000   0.040051351   -36.327876      0.060075867   -36.2678       -0.0021843039  -0.033802843   -0.011478824    116.06353      28.33639       28.232378     -0.01582199     92851.248    
     81000   0.040086294   -36.328453      0.06012828    -36.268325     -0.026281797   -0.013052509   -0.053267408    116.11797      28.321447      28.25902      -0.030867238    92933.431    
     82000   0.040121419   -36.32818       0.060180966   -36.267999      0.013731565   -0.012824049    0.014174047    116.25763      28.315204      28.258435      0.0050271877   93022.772    
     83000   0.040337229   -36.328487      0.060504676   -36.267983     -0.0059854938  -0.018231776    0.018958032    116.32165      28.315127      28.248562     -0.0017530792   93041.228    
     84000   0.039983857   -36.328225      0.059974627   -36.268251     -0.0085801089  -0.048996035   -0.02464582     116.26301      28.310541      28.235244     -0.027407321    92935.421    
     85000   0.040120671   -36.328308      0.060179845   -36.268128     -0.010125015   -0.055718349   -0.02223922     116.2645       28.301691      28.247083     -0.029360861    92946.519    
     86000   0.040123954   -36.328775      0.060184769   -36.26859      -0.018395724   -0.039703985   -0.028354873    116.27105      28.291289      28.250946     -0.028818194    92930.298    
     87000   0.039824414   -36.328728      0.059735468   -36.268993      0.013415707    0.010374519   -0.020720014    116.21878      28.290729      28.258581      0.0010234042   92911.783    
     88000   0.040013784   -36.328507      0.060019517   -36.268488     -0.060674106   -0.060334853   -0.053081085    116.29435      28.304626      28.244437     -0.058030015    92971.31     
     89000   0.039860975   -36.328653      0.059790309   -36.268863     -0.014968995   -0.016903931    0.0112649      116.25555      28.301456      28.240205     -0.0068693418   92915.962    
     90000   0.039940222   -36.328848      0.059909177   -36.268938     -0.022425984   -0.0085361357   0.01006158     116.26071      28.298924      28.240059     -0.0069668463   92911.294    
     91000   0.040254742   -36.328712      0.060380947   -36.268331     -0.010084416    0.030692798    0.05310492     116.28876      28.300526      28.243228      0.024571101    92949.402    
     92000   0.039942798   -36.328571      0.059913041   -36.268658      0.011033659   -0.00089582308 -0.0053033456   116.25772      28.295387      28.258247      0.0016114967   92957.119    
     93000   0.040031168   -36.328821      0.060045593   -36.268775      0.022623949   -0.012068672    0.037128792    116.26026      28.299826      28.248539      0.01589469     92941.794    
     94000   0.04018621    -36.328596      0.060278151   -36.268318     -0.03067022    -0.029727896   -0.014133192    116.31402      28.286388      28.251985     -0.024843769    92951.953    
     95000   0.039963207   -36.328867      0.059943654   -36.268923      0.019901322    0.00039753903  0.03409912     116.3639       28.29344       28.265237      0.01813266     93058.633    
     96000   0.039902406   -36.329014      0.059852453   -36.269161     -0.021932425   -0.0069037441  -0.011764005    116.35777      28.284916      28.256725     -0.013533391    92997.674    
     97000   0.04004012    -36.328923      0.06005902    -36.268864     -0.012929699    0.023627113   -0.013579116    116.29905      28.290191      28.25171      -0.00096056744  92951.582    
     98000   0.040174936   -36.328852      0.06026124    -36.26859       0.033213111    0.010623017    0.030966059    116.28398      28.281396      28.251116      0.024934062    92908.693    
     99000   0.040283224   -36.329163      0.06042367    -36.268739     -0.0088886043  -0.060047766   -0.041042105    116.36103      28.277178      28.253265     -0.036659492    92963.456    
    100000   0.039894211   -36.32916       0.059840162   -36.26932      -0.0016659626   0.00026601558 -0.0056139365   116.32844      28.290881      28.252559     -0.0023379612   92980.134    
Loop time of 1900.54 on 1 procs for 100000 steps with 51803 atoms

Performance: 4546.065 tau/day, 52.616 timesteps/s, 2.726 Matom-step/s
100.0% CPU use with 1 MPI tasks x 1 OpenMP threads

MPI task timing breakdown:
Section |  min time  |  avg time  |  max time  |%varavg| %total
---------------------------------------------------------------
Pair    | 1668.3     | 1668.3     | 1668.3     |   0.0 | 87.78
Neigh   | 21.566     | 21.566     | 21.566     |   0.0 |  1.13
Comm    | 15.653     | 15.653     | 15.653     |   0.0 |  0.82
Output  | 0.037924   | 0.037924   | 0.037924   |   0.0 |  0.00
Modify  | 175.4      | 175.4      | 175.4      |   0.0 |  9.23
Other   |            | 19.63      |            |       |  1.03

Nlocal:          51803 ave       51803 max       51803 min
Histogram: 1 0 0 0 0 0 0 0 0 0
Nghost:          30274 ave       30274 max       30274 min
Histogram: 1 0 0 0 0 0 0 0 0 0
Neighs:         819351 ave      819351 max      819351 min
Histogram: 1 0 0 0 0 0 0 0 0 0

Total # of neighbors = 819351
Ave neighs/atom = 15.816671
Neighbor list builds = 409
Dangerous builds = 0
unfix		1

reset_timestep  0
thermo		2000

restart         1000000 agoodstart.restart

log            log.tensile1
