LAMMPS (19 Nov 2024 - Development - patch_2Jul2021-14588-g93bfae9507)
OMP_NUM_THREADS environment is not set. Defaulting to 1 thread. (src/comm.cpp:99)
  using 1 OpenMP thread(s) per MPI task
######### 3d Lennard-Jones for polymeric system #############
######## simulting polymer brush by "grafting from" approach##
##### study the effect of iniatior density embedded in the #### #### substrate on chain length disbribution and polydispersity###

units		lj
atom_style	atomic
boundary        p p p
########## configure the simulation setup ############
#rho is 0.016 before
read_data	after.data nocoeff
Reading data file ...
  orthogonal box = (0 8 8) to (512 24 24)
  1 by 1 by 1 MPI processor grid
WARNING: Pair style lj/cut/bump in data file differs from currently defined pair style zero (src/read_data.cpp:786)
  reading atoms ...
  25781 atoms
  reading velocities ...
  25781 velocities
  read_data CPU = 0.322 seconds
#read_restart	agoodstart.restart
#replicate	1 2 2
variable        rho equal 2/(2*2^(1./6.))^3

variable        dimx equal 16*4
variable        dimy equal 8*2
variable        dimz equal 8*2

region	end block  0 2 INF INF INF INF units box
#delete_atoms	region end

#lattice	sc 0.125
#region	mybox block 0 50 0 30 0 30 units box
#create_atoms 5 box

#mass (soft segment = 1.0 / hard segment = 1.0)
variable        mass5 equal 1.0
mass            * 1.0
mass            1 0.2
mass            2 0.2
mass            3 0.1
mass            4 0.1
mass            5 0.35 #solvent mass

mass            6 0.1
mass            7 1.0
mass            8 1.0

###### randomly reset some of the bottom substrate atoms to radical atoms ####

group           patch4 type 4
4096 atoms in group patch4
group           patch1 type 1
1024 atoms in group patch1
group           patch2 type 2
1024 atoms in group patch2
group           patch3 type 3
4096 atoms in group patch3
group           patch6 type 6
8192 atoms in group patch6
group           patch5 type 5
1237 atoms in group patch5
group           patch7 type 7
3056 atoms in group patch7
group           patch8 type 8
3056 atoms in group patch8
#delete_atoms   group patch6
group           patch9 type 9
0 atoms in group patch9
delete_atoms    group patch9
Deleted 0 atoms, new total = 25781
#delete_atoms    group patch3
#delete_atoms    group patch4
#delete_atoms    group patch6


#temperature is 0.028 before
variable	t equal 0.04
variable	tf equal 0.04
velocity	all create $t 1234
velocity	all create 0.04 1234

#c is 2.35 before for chains, 1.9 for very compact
variable        c equal 1.8
variable        s equal $c/2^(1./6.)
variable        s equal 1.8/2^(1./6.)

#variable        m equal ${shift}/2^(1./6.)
#variable        n equal $m*1.6

variable        u equal 1.0
variable        v equal $u/2^(1./6.)
variable        v equal 1/2^(1./6.)

variable        p equal 1.0
variable        q equal $p/2^(1./6.)
variable        q equal 1/2^(1./6.)

variable        h equal 1.0
variable        k equal $h/2^(1./6.)
variable        k equal 1/2^(1./6.)

variable        h2 equal 1.0
variable        k2 equal ${h2}/2^(1./6.)
variable        k2 equal 1/2^(1./6.)

variable        h3 equal sqrt(2.0) # 1.414
variable        k3 equal ${h3}/2^(1./6.)
variable        k3 equal 1.4142135623731/2^(1./6.)

variable        b equal 0.2
variable        b1 equal 0.14

variable        c3 equal 2.0
variable        s3 equal ${c3}/2^(1./6.)
variable        s3 equal 2/2^(1./6.)

variable        c5 equal 1.6
variable        s5 equal ${c5}/2^(1./6.)
variable        s5 equal 1.6/2^(1./6.)

variable        h4 equal 0.5
variable        k4 equal ${h4}/2^(1./6.)
variable        k4 equal 0.5/2^(1./6.)

variable        h5 equal 0.50
variable        k5 equal ${h5}/2^(1./6.)
variable        k5 equal 0.5/2^(1./6.)

variable        c4 equal 0.707
variable        s4 equal ${c4}/2^(1./6.)
variable        s4 equal 0.707/2^(1./6.)

variable        c6 equal 2.5
variable        s6 equal ${c6}/2^(1./6.)
variable        s6 equal 2.5/2^(1./6.)

variable        c7 equal 2.8
variable        s7 equal ${c7}/2^(1./6.)
variable        s7 equal 2.8/2^(1./6.)

#pair_style     lj/cut/bump/smooth/linear 2.5
pair_style      lj/cut/bump 2.8 #cutoff 2.8
pair_coeff      * * 0.02 $v 1.0 1 0 $u
pair_coeff      * * 0.02 0.890898718140339 1.0 1 0 $u
pair_coeff      * * 0.02 0.890898718140339 1.0 1 0 1

#backbone
#in hard segment
pair_coeff      1 1 20.0 $s  1.0 1 0 1.8 #1.8 only repulsion
pair_coeff      1 1 20.0 1.60361769265261  1.0 1 0 1.8 
pair_coeff      2 2 20.0 $s  1.0 1 0 1.8 #1.8 only repulsion
pair_coeff      2 2 20.0 1.60361769265261  1.0 1 0 1.8 
pair_coeff      1 2 20.0 ${k2} 1.2 1 1.0 1.8 #1 strong bond
pair_coeff      1 2 20.0 0.890898718140339 1.2 1 1.0 1.8 

#connect soft segments in outside and inside hard segments
pair_coeff      2 7 20.0 ${k2} 1.2 1 1.0 1.8 #1 strong bond
pair_coeff      2 7 20.0 0.890898718140339 1.2 1 1.0 1.8 
pair_coeff      1 8 20.0 ${k2} 1.2 1 1.0 1.8 #1 strong bond
pair_coeff      1 8 20.0 0.890898718140339 1.2 1 1.0 1.8 
pair_coeff      1 7 20.0 $s  1.0 1 0 1.8 #1.8 only repulsion
pair_coeff      1 7 20.0 1.60361769265261  1.0 1 0 1.8 
pair_coeff      2 8 20.0 $s  1.0 1 0 1.8 #1.8 only repulsion
pair_coeff      2 8 20.0 1.60361769265261  1.0 1 0 1.8 

#soft segment (distance between soft/soft = 2.2)
pair_coeff      7 7 20.0 $s  1.0 1 0 1.8 #1.8 only repulsion
pair_coeff      7 7 20.0 1.60361769265261  1.0 1 0 1.8 
pair_coeff      8 8 20.0 $s  1.0 1 0 1.8 #1.8 only repulsion
pair_coeff      8 8 20.0 1.60361769265261  1.0 1 0 1.8 
pair_coeff      7 8 20.0 ${k2} 1.2 1 1.0 1.8 #1 strong bond
pair_coeff      7 8 20.0 0.890898718140339 1.2 1 1.0 1.8 

#intramolecular interactions in hard segments
pair_coeff      1 3 20.0 ${k4} 1.2 1 2.0 1.118 #0.5 strong bond
pair_coeff      1 3 20.0 0.44544935907017 1.2 1 2.0 1.118 
pair_coeff      2 3 20.0 ${k4} 1.2 1 2.0 1.118 #0.5 strong bond
pair_coeff      2 3 20.0 0.44544935907017 1.2 1 2.0 1.118 
pair_coeff      1 4 20.0 ${k4} 1.2 1 2.0 1.118 #0.5 strong bond
pair_coeff      1 4 20.0 0.44544935907017 1.2 1 2.0 1.118 
pair_coeff      2 4 20.0 ${k4} 1.2 1 2.0 1.118 #0.5 strong bond
pair_coeff      2 4 20.0 0.44544935907017 1.2 1 2.0 1.118 
pair_coeff      1*2 6 20.0 ${s4} 1.2 1 2.0 1.225 #0.707 strong bond
pair_coeff      1*2 6 20.0 0.62986539372522 1.2 1 2.0 1.225 

pair_coeff      3 4 20.0 ${s4} 1.2 1 2.0 1.225 #0.707 weak bond ####
pair_coeff      3 4 20.0 0.62986539372522 1.2 1 2.0 1.225 
pair_coeff      3*4 6 20.0 ${k4} 1.2 1 2.0 1.118 #0.5 strong bond
pair_coeff      3*4 6 20.0 0.44544935907017 1.2 1 2.0 1.118 
#pair_coeff      3*4 6 0.01 ${k5} 1.2 1 0.0 0.50 #0.50 only repulsion ####

#pair_coeff      3 3 10.0 ${k2} 1.2 1 1.0 1.2 #1 strong bond_initial
#pair_coeff      4 4 10.0 ${k2} 1.2 1 1.0 1.2 #1 strong bond_initial

pair_coeff      6 6 5.0 ${k2} 1.16 1.0 2.0 1.12 #1 strong bond ####
pair_coeff      6 6 5.0 0.890898718140339 1.16 1.0 2.0 1.12 

#intermolecular interactions between soft and hard segments

pair_coeff      3*4 7 0.01 ${k4} 1.2 1 0.0 0.5 #0.5 only repulsion
pair_coeff      3*4 7 0.01 0.44544935907017 1.2 1 0.0 0.5 
pair_coeff      3*4 8 0.01 ${k4} 1.2 1 0.0 0.5 #0.5 only repulsion
pair_coeff      3*4 8 0.01 0.44544935907017 1.2 1 0.0 0.5 
pair_coeff      6 7 0.01 ${k4} 1.2 1 0.0 0.5 #0.5 only repulsion
pair_coeff      6 7 0.01 0.44544935907017 1.2 1 0.0 0.5 
pair_coeff      6 8 0.01 ${k4} 1.2 1 0.0 0.5 #0.5 only repulsion
pair_coeff      6 8 0.01 0.44544935907017 1.2 1 0.0 0.5 

#turn on hydrophobic interaction of solvent particles
variable        c8 equal 2.0
variable        s8 equal ${c8}/2^(1./6.)
variable        s8 equal 2/2^(1./6.)

variable        c9 equal 2.2
variable        s9 equal ${c9}/2^(1./6.)
variable        s9 equal 2.2/2^(1./6.)

variable        c10 equal 0.3
variable        s10 equal ${c10}/2^(1./6.)
variable        s10 equal 0.3/2^(1./6.)

pair_coeff      1*2 5 0.05 ${s9} 1.2 1 0.0 2.2 # 2.2 only repulsion
pair_coeff      1*2 5 0.05 1.95997717990875 1.2 1 0.0 2.2 

pair_coeff      3*4 5 0.01 ${s10} 1.2 1 0.0 0.3 #only repulsion
pair_coeff      3*4 5 0.01 0.267269615442102 1.2 1 0.0 0.3 
pair_coeff      5 6 0.01 ${s10} 1.2 1 0.0 0.3 #only repulsion
pair_coeff      5 6 0.01 0.267269615442102 1.2 1 0.0 0.3 

#turn on 33bond and 44bond
pair_coeff      3 3 2.5 ${k2} 1.1 0.415 2.0 2.8 #1 strong bond
pair_coeff      3 3 2.5 0.890898718140339 1.1 0.415 2.0 2.8 
pair_coeff      4 4 2.5 ${k2} 1.1 0.475 2.0 2.8 #1 strong bond
pair_coeff      4 4 2.5 0.890898718140339 1.1 0.475 2.0 2.8 

#solvent behavior
pair_coeff      5 5 0.05 ${s9} 1.2 1 0.0 2.2 # 2.2 only repulsion
pair_coeff      5 5 0.05 1.95997717990875 1.2 1 0.0 2.2 

pair_coeff      5 7 0.05 ${s8} 1.2 1 0.0 2.8 # 2.0 attraction
pair_coeff      5 7 0.05 1.78179743628068 1.2 1 0.0 2.8 
pair_coeff      5 8 0.05 ${s8} 1.2 1 0.0 2.8 # 2.0 attraction
pair_coeff      5 8 0.05 1.78179743628068 1.2 1 0.0 2.8 

pair_modify     tail no
pair_modify     shift yes
neighbor        0.5 bin
neigh_modify    every 1 delay 0 check yes
#neigh_modify    page 100000000000
#neigh_modify    one  10000000000

timestep        0.001
thermo          2000
thermo_style    custom step temp pe ke etotal pxx pyy pzz lx ly lz press vol

#turn on 33bond and 44bond
#pair_coeff      3 3 5.0 ${k2} 1.1 0.405 1.0 2.8 #1 strong bond
#pair_coeff      4 4 5.0 ${k2} 1.1 0.475 1.0 2.8 #1 strong bond

#turn on hydrophilic interaction of solvent particles
#pair_coeff      5 5 0.05 $s 1.2 1 0.0 2.8 # 1.8 attraction

#pair_coeff      5 7 0.05 ${s9} 1.2 1 0.0 2.8 # 2.0 attraction
#pair_coeff      5 8 0.05 ${s9} 1.2 1 0.0 2.8 # 2.0 attraction


#restart         455000 agoodstart.restart


dump            1 all custom 100000 lata4olivia_assembly id type x y z fx fy fz vx vy vz
################relaxation (P drop)######################
#minimize        1e-5 1e-6 100000 100000
fix		1 all nvt temp ${tf} ${tf} 0.01
fix		1 all nvt temp 0.04 ${tf} 0.01
fix		1 all nvt temp 0.04 0.04 0.01
run		200000 #pre-assemble
Generated 0 of 36 mixed pair_coeff terms from geometric mixing rule
Neighbor list info ...
  update: every = 1 steps, delay = 0 steps, check = yes
  max neighbors/atom: 2000, page size: 100000
  master list distance cutoff = 3.3
  ghost atom cutoff = 3.3
  binsize = 1.65, bins = 311 10 10
  1 neighbor lists, perpetual/occasional/extra = 1 0 0
  (1) pair lj/cut/bump, perpetual
      attributes: half, newton on
      pair build: half/bin/atomonly/newton
      stencil: half/bin/3d
      bin: standard
Per MPI rank memory allocation (min/avg/max) = 13.02 | 13.02 | 13.02 Mbytes
   Step          Temp          PotEng         KinEng         TotEng          Pxx            Pyy            Pzz             Lx             Ly             Lz           Press          Volume    
         0   0.04          -34.939043      0.059997673   -34.879045      4.9761786     -1.1824639     -0.56985578     512            16             16             1.0746196      131072       
      2000   0.033241777   -38.377457      0.049860732   -38.327597     -0.059465478    0.0012899279   0.0032410732   512            16             16            -0.018311492    131072       
      4000   0.041908492   -38.375934      0.062860299   -38.313073     -0.15036816     0.00096795687  0.0050153191   512            16             16            -0.048128293    131072       
      6000   0.039316015   -38.373388      0.058971734   -38.314417     -0.25462738     0.0055434349   0.011298412    512            16             16            -0.079261845    131072       
      8000   0.039843099   -38.375733      0.05976233    -38.315971     -0.29942497     0.0018991757   0.0020830008   512            16             16            -0.098480931    131072       
     10000   0.040162838   -38.385086      0.060241921   -38.324844     -0.31674522     0.012994506    0.012515682    512            16             16            -0.097078343    131072       
     12000   0.04018869    -38.396718      0.060280697   -38.336438     -0.27684454     0.010465996    0.0073199828   512            16             16            -0.086352855    131072       
     14000   0.040001213   -38.405953      0.059999492   -38.345953     -0.23424037     0.0015822963   0.0070880547   512            16             16            -0.075190005    131072       
     16000   0.039790574   -38.413906      0.059683546   -38.354222     -0.20081187     0.0080190609   0.0026029195   512            16             16            -0.063396629    131072       
     18000   0.040480695   -38.420822      0.060718687   -38.360103     -0.18034123     0.012781334    0.0017097841   512            16             16            -0.055283369    131072       
     20000   0.039987668   -38.426647      0.059979176   -38.366668     -0.18255752     0.0067109426  -0.0085470153   512            16             16            -0.061464531    131072       
     22000   0.039911713   -38.43113       0.059865248   -38.371265     -0.17959172    -0.011104517   -0.00077340887  512            16             16            -0.063823215    131072       
     24000   0.039703164   -38.432542      0.059552436   -38.37299      -0.17225933    -0.0013874607   0.0053381068   512            16             16            -0.056102893    131072       
     26000   0.040254378   -38.436007      0.060379225   -38.375627     -0.17018199     0.0042159193  -0.0085531035   512            16             16            -0.058173057    131072       
     28000   0.040124735   -38.43662       0.060184768   -38.376435     -0.15875691     0.0012928595  -0.017306457    512            16             16            -0.058256837    131072       
     30000   0.039697852   -38.438162      0.059544469   -38.378618     -0.15541919    -0.0059707763   0.0039105134   512            16             16            -0.052493152    131072       
     32000   0.039789424   -38.440104      0.059681821   -38.380422     -0.13854747    -0.019633218   -0.015300156    512            16             16            -0.057826947    131072       
     34000   0.040286155   -38.443473      0.060426888   -38.383046     -0.15811265    -0.00034875297 -0.0089557931   512            16             16            -0.055805732    131072       
     36000   0.039942021   -38.444808      0.059910708   -38.384898     -0.10782496     0.0067028557   0.012779697    512            16             16            -0.029447468    131072       
     38000   0.040006443   -38.445826      0.060007337   -38.385819     -0.12962864    -0.021353142    9.4868599e-05  512            16             16            -0.050295639    131072       
     40000   0.040149997   -38.448727      0.06022266    -38.388504     -0.14642439    -0.012906817    0.0066140723   512            16             16            -0.050905711    131072       
     42000   0.040127525   -38.451031      0.060188953   -38.390842     -0.12837441    -0.0032095224  -0.0083670551   512            16             16            -0.046650329    131072       
     44000   0.039431096   -38.452613      0.05914435    -38.393468     -0.12901484    -0.0023112689  -0.00021324497  512            16             16            -0.04384645     131072       
     46000   0.039832958   -38.453201      0.059747119   -38.393454     -0.097263859   -0.019567838   -0.017139645    512            16             16            -0.044657114    131072       
     48000   0.039646176   -38.455914      0.059466957   -38.396447     -0.10419416    -0.017723601   -0.016892372    512            16             16            -0.046270045    131072       
     50000   0.039878777   -38.459162      0.059815845   -38.399346     -0.13181721    -0.035717505   -0.0034153009   512            16             16            -0.056983338    131072       
     52000   0.039943513   -38.461281      0.059912945   -38.401368     -0.099014987   -0.019274279    0.011042469    512            16             16            -0.035748932    131072       
     54000   0.03991849    -38.461817      0.059875413   -38.401942     -0.10977573     0.0013248448  -0.0034586526   512            16             16            -0.037303178    131072       
     56000   0.04015582    -38.462539      0.060231394   -38.402307     -0.13021446    -0.0066342609  -0.0029749146   512            16             16            -0.04660788     131072       
     58000   0.039743853   -38.463562      0.059613467   -38.403948     -0.091866626   -0.021777928    0.017754771    512            16             16            -0.031963261    131072       
     60000   0.039765486   -38.463671      0.059645915   -38.404025     -0.086799391   -0.0050635406  -0.015242559    512            16             16            -0.03570183     131072       
     62000   0.040195506   -38.46351       0.060290921   -38.403219     -0.085954875    0.0077380037   0.0035222871   512            16             16            -0.024898195    131072       
     64000   0.039772503   -38.463804      0.05965644    -38.404148     -0.069194617   -0.010409391   -0.0082798562   512            16             16            -0.029294622    131072       
     66000   0.040017526   -38.464981      0.06002396    -38.404957     -0.071053815   -0.011460127    0.00073747128  512            16             16            -0.027258824    131072       
     68000   0.03995407    -38.464375      0.05992878    -38.404446     -0.086804373   -0.0093077259  -0.011220949    512            16             16            -0.035777683    131072       
     70000   0.040345056   -38.464752      0.060515237   -38.404237     -0.078019655   -0.012805295    0.0030256143   512            16             16            -0.029266445    131072       
     72000   0.040533105   -38.464394      0.0607973     -38.403596     -0.061276313    0.012822566   -0.0020987054   512            16             16            -0.016850817    131072       
     74000   0.039989397   -38.46438       0.059981769   -38.404398     -0.059033803   -0.001807417    0.0019749452   512            16             16            -0.019622092    131072       
     76000   0.040315502   -38.466074      0.060470907   -38.405603     -0.049771027   -0.020147794    0.001077428    512            16             16            -0.022947131    131072       
     78000   0.039864346   -38.465923      0.059794199   -38.406129     -0.057962625    0.007700355    0.004642856    512            16             16            -0.015206471    131072       
     80000   0.039948309   -38.465754      0.059920139   -38.405834     -0.04604871    -0.015657802   -0.0050902824   512            16             16            -0.022265598    131072       
     82000   0.040088105   -38.468535      0.060129825   -38.408405     -0.090876677   -0.029221147   -0.02099407     512            16             16            -0.047030631    131072       
     84000   0.03974897    -38.46766       0.059621143   -38.408039     -0.06958954    -0.0070629415  -0.015297184    512            16             16            -0.030649889    131072       
     86000   0.040168057   -38.46915       0.060249749   -38.4089       -0.078482662   -0.0029390322   0.010272945    512            16             16            -0.02371625     131072       
     88000   0.039965514   -38.470507      0.059945946   -38.410561     -0.059303754    0.0098911369  -0.0097278789   512            16             16            -0.019713499    131072       
     90000   0.039743709   -38.471284      0.059613251   -38.411671     -0.048447604   -0.017823413   -0.0048285118   512            16             16            -0.023699843    131072       
     92000   0.039977501   -38.471034      0.059963925   -38.41107      -0.061072882    0.001208286   -0.01666561     512            16             16            -0.025510069    131072       
     94000   0.04013981    -38.471838      0.060207379   -38.41163      -0.029877655   -0.00069606654  0.0093934282   512            16             16            -0.0070600977   131072       
     96000   0.04025013    -38.471562      0.060372853   -38.41119      -0.043504529    0.0042857122   0.016091308    512            16             16            -0.0077091697   131072       
     98000   0.040218635   -38.471489      0.060325613   -38.411163     -0.047510439   -0.0015035072  -0.017834191    512            16             16            -0.022282712    131072       
    100000   0.039905632   -38.472246      0.059856126   -38.412389     -0.04837881    -0.016654006    0.0073746128   512            16             16            -0.019219401    131072       
    102000   0.040223769   -38.472704      0.060333314   -38.412371     -0.060878471    0.0033744989  -0.0059361846   512            16             16            -0.021146719    131072       
    104000   0.039978319   -38.471653      0.059965153   -38.411688     -0.022460879   -0.00096198169  0.025639846    512            16             16             0.00073899493  131072       
    106000   0.040156198   -38.472773      0.06023196    -38.412541     -0.045714538   -0.0079908994  -0.0094175939   512            16             16            -0.02104101     131072       
    108000   0.040255337   -38.47393       0.060380664   -38.41355      -0.0832876     -0.0248059     -0.0065698122   512            16             16            -0.038221104    131072       
    110000   0.040562754   -38.473671      0.06084177    -38.412829     -0.03707438    -0.0040626362   0.0038061923   512            16             16            -0.012443608    131072       
    112000   0.04016237    -38.474089      0.060241218   -38.413848     -0.05743259    -0.0064002615   0.0085908603   512            16             16            -0.018413997    131072       
    114000   0.03984618    -38.474757      0.059766951   -38.41499      -0.027629039   -0.002343792   -0.012484767    512            16             16            -0.014152533    131072       
    116000   0.040021764   -38.475251      0.060030317   -38.41522      -0.046659342   -0.0017112801   0.021178272    512            16             16            -0.0090641169   131072       
    118000   0.040000446   -38.475313      0.059998342   -38.415315     -0.021392892    0.021865813    0.014020335    512            16             16             0.0048310855   131072       
    120000   0.039892838   -38.475798      0.059836937   -38.415961     -0.059767112    0.013667228    0.013920002    512            16             16            -0.010726628    131072       
    122000   0.040010783   -38.475625      0.060013847   -38.415611     -0.046159864   -0.0006779231  -0.0091682827   512            16             16            -0.01866869     131072       
    124000   0.039895843   -38.474413      0.059841444   -38.414571     -0.0037673448   0.021296645    0.013900135    512            16             16             0.010476478    131072       
    126000   0.040043369   -38.47583       0.060062724   -38.415767     -0.021298162    0.02061994     0.0097281363   512            16             16             0.0030166382   131072       
    128000   0.039923971   -38.477442      0.059883634   -38.417558     -0.021188478   -0.010136027   -0.014377662    512            16             16            -0.015234056    131072       
    130000   0.040117711   -38.476869      0.060174232   -38.416695     -0.021093084    0.0093584279   0.0053547904   512            16             16            -0.002126622    131072       
    132000   0.040111616   -38.477121      0.06016509    -38.416956     -0.042485286   -0.00075888681 -0.0075185526   512            16             16            -0.016920908    131072       
    134000   0.040100916   -38.478821      0.060149041   -38.418672     -0.069183316    0.012680807   -2.1076732e-05  512            16             16            -0.018841195    131072       
    136000   0.040103023   -38.478674      0.060152201   -38.418521     -0.065780985   -0.0153359     -0.010992304    512            16             16            -0.030703063    131072       
    138000   0.040208584   -38.478463      0.060310536   -38.418153     -0.041891268   -0.016549371   -0.0048281671   512            16             16            -0.021089602    131072       
    140000   0.040216837   -38.478543      0.060322916   -38.41822      -0.033354338    0.0082318881   0.0098039373   512            16             16            -0.0051061708   131072       
    142000   0.040101832   -38.478258      0.060150415   -38.418107     -0.053690174    0.020238028    0.010191825    512            16             16            -0.0077534402   131072       
    144000   0.040050056   -38.478406      0.060072754   -38.418334     -0.040822673   -0.0010531489   0.0051705796   512            16             16            -0.012235081    131072       
    146000   0.040014865   -38.479114      0.06001997    -38.419094     -0.043462577   -0.02528199    -0.0029130404   512            16             16            -0.023885869    131072       
    148000   0.03999533    -38.478646      0.059990667   -38.418655     -0.023913387    0.0084142499  -0.00095202996  512            16             16            -0.0054837224   131072       
    150000   0.040100582   -38.479396      0.060148539   -38.419248     -0.053164597    0.00013331864 -0.014125059    512            16             16            -0.022385446    131072       
    152000   0.040036338   -38.478973      0.060052177   -38.418921     -0.033800036    0.0042325596   0.029667869    512            16             16             3.3464349e-05  131072       
    154000   0.040075661   -38.479601      0.060111159   -38.41949      -0.061731952   -0.01535674    -0.0062392293   512            16             16            -0.027775974    131072       
    156000   0.040025831   -38.479444      0.060036418   -38.419407     -0.065136722   -0.014004185   -0.021663139    512            16             16            -0.033601348    131072       
    158000   0.039739765   -38.479079      0.059607335   -38.419471     -0.053817376   -0.0021532017  -0.016206955    512            16             16            -0.024059178    131072       
    160000   0.039898495   -38.478941      0.059845421   -38.419096     -0.020711622    0.01803003     0.0099530837   512            16             16             0.0024238306   131072       
    162000   0.040354917   -38.478958      0.060530027   -38.418427     -0.065571915   -0.013353716    0.00098747685  512            16             16            -0.025979385    131072       
    164000   0.040240311   -38.478989      0.060358125   -38.418631     -0.024220473   -0.0036650763  -0.0048508477   512            16             16            -0.010912132    131072       
    166000   0.040018872   -38.479412      0.06002598    -38.419386     -0.07067868     0.00020730908  0.0020362226   512            16             16            -0.022811716    131072       
    168000   0.040330517   -38.479229      0.060493429   -38.418735     -0.026819238    0.0049881556   0.0044310746   512            16             16            -0.0058000027   131072       
    170000   0.040060238   -38.479173      0.060088027   -38.419085     -0.041923459    0.0089254585  -0.015197174    512            16             16            -0.016065058    131072       
    172000   0.040119413   -38.479419      0.060176785   -38.419242     -0.028507601    0.0023288871  -0.0056091226   512            16             16            -0.010595945    131072       
    174000   0.040069083   -38.479686      0.060101293   -38.419585     -0.045305936   -0.021706317   -0.015011592    512            16             16            -0.027341282    131072       
    176000   0.039988461   -38.479812      0.059980365   -38.419832     -0.019227002   -0.014150547   -0.017981264    512            16             16            -0.017119604    131072       
    178000   0.040173192   -38.478961      0.060257451   -38.418703     -0.011812304    0.029488854   -0.0053684816   512            16             16             0.0041026896   131072       
    180000   0.040098486   -38.479118      0.060145397   -38.418973     -0.047839437   -0.0013909999  -0.014434787    512            16             16            -0.021221741    131072       
    182000   0.039455695   -38.479571      0.059181247   -38.42039      -0.048711092   -0.020982066   -0.011621995    512            16             16            -0.027105051    131072       
    184000   0.039847364   -38.479729      0.059768728   -38.419961     -0.062951616   -0.033083484   -0.021338086    512            16             16            -0.039124395    131072       
    186000   0.040364681   -38.479705      0.060544673   -38.419161     -0.0039582722   0.010521434   -0.00027653439  512            16             16             0.0020955424   131072       
    188000   0.039395593   -38.479903      0.059091098   -38.420812     -0.019473351    0.0012754179  -0.0022847622   512            16             16            -0.0068275651   131072       
    190000   0.039983874   -38.480817      0.059973484   -38.420843     -0.041764432    0.0069879994  -0.0077396736   512            16             16            -0.014172035    131072       
    192000   0.040136326   -38.480574      0.060202153   -38.420371     -0.044206812    0.014762271    0.016095459    512            16             16            -0.0044496938   131072       
    194000   0.0398473     -38.481061      0.059768631   -38.421293     -0.014874857    0.0051962827   0.0078693211   512            16             16            -0.00060308441  131072       
    196000   0.039884201   -38.480521      0.059823981   -38.420697     -0.053348236   -0.013395122   -0.011178925    512            16             16            -0.025974094    131072       
    198000   0.040239321   -38.481341      0.06035664    -38.420984     -0.03983959     0.0035031206   0.010914003    512            16             16            -0.0084741556   131072       
    200000   0.039801428   -38.480478      0.059699827   -38.420778     -0.047971205   -0.004829544   -0.0082357574   512            16             16            -0.020345502    131072       
Loop time of 1499.29 on 1 procs for 200000 steps with 25781 atoms

Performance: 11525.447 tau/day, 133.396 timesteps/s, 3.439 Matom-step/s
99.2% CPU use with 1 MPI tasks x 1 OpenMP threads

MPI task timing breakdown:
Section |  min time  |  avg time  |  max time  |%varavg| %total
---------------------------------------------------------------
Pair    | 1373.9     | 1373.9     | 1373.9     |   0.0 | 91.63
Neigh   | 21.625     | 21.625     | 21.625     |   0.0 |  1.44
Comm    | 18.978     | 18.978     | 18.978     |   0.0 |  1.27
Output  | 0.18035    | 0.18035    | 0.18035    |   0.0 |  0.01
Modify  | 67.037     | 67.037     | 67.037     |   0.0 |  4.47
Other   |            | 17.62      |            |       |  1.18

Nlocal:          25781 ave       25781 max       25781 min
Histogram: 1 0 0 0 0 0 0 0 0 0
Nghost:          19184 ave       19184 max       19184 min
Histogram: 1 0 0 0 0 0 0 0 0 0
Neighs:         376340 ave      376340 max      376340 min
Histogram: 1 0 0 0 0 0 0 0 0 0

Total # of neighbors = 376340
Ave neighs/atom = 14.597572
Neighbor list builds = 1379
Dangerous builds = 0
unfix           1

################P change into 0.001######################
variable        pressurenow equal press
#fix             1 all npt temp ${tf} ${tf} 0.01 iso ${pressurenow} 0.001 10
fix             1 all npt temp ${tf} ${tf} 0.01 x 0.0 0.0 5.0 y ${pressurenow} 0.001 10 z ${pressurenow} 0.001 10
fix             1 all npt temp 0.04 ${tf} 0.01 x 0.0 0.0 5.0 y ${pressurenow} 0.001 10 z ${pressurenow} 0.001 10
fix             1 all npt temp 0.04 0.04 0.01 x 0.0 0.0 5.0 y ${pressurenow} 0.001 10 z ${pressurenow} 0.001 10
fix             1 all npt temp 0.04 0.04 0.01 x 0.0 0.0 5.0 y -0.0203455020987797 0.001 10 z ${pressurenow} 0.001 10
fix             1 all npt temp 0.04 0.04 0.01 x 0.0 0.0 5.0 y -0.0203455020987797 0.001 10 z -0.0203455020987797 0.001 10

run             100000
Generated 0 of 36 mixed pair_coeff terms from geometric mixing rule
Per MPI rank memory allocation (min/avg/max) = 19.58 | 19.58 | 19.58 Mbytes
   Step          Temp          PotEng         KinEng         TotEng          Pxx            Pyy            Pzz             Lx             Ly             Lz           Press          Volume    
    200000   0.039801428   -38.480478      0.059699827   -38.420778     -0.047971205   -0.004829544   -0.0082357574   512            16             16            -0.020345502    131072       
    202000   0.040063615   -38.481578      0.060093091   -38.421484     -0.014356494   -0.004854474   -0.0083738585   505.42728      16.205466      16.202603     -0.009194942    132710.41    
    204000   0.039936748   -38.48234       0.059902799   -38.422437     -0.0093293514  -7.6621325e-05  0.011164888    500.29136      16.386417      16.381685      0.00058630518  134296.77    
    206000   0.040297465   -38.48206       0.060443852   -38.421616     -0.024081381    0.010199576   -0.0092783008   496.74568      16.56249       16.556892     -0.0077200351   136219.27    
    208000   0.040459872   -38.483433      0.060687454   -38.422746     -0.0099806945   0.0016152151  -0.001103537    494.0423       16.735361      16.727689     -0.0031563388   138304.14    
    210000   0.039826365   -38.482709      0.05973723    -38.422972      0.018279209    0.0039239083   0.0024456948   491.87409      16.904123      16.895847      0.0082162708   140483.9     
    212000   0.04026921    -38.483207      0.060401472   -38.422806     -0.018667034   -0.0098931844  -0.0069607134   490.0967       17.070919      17.062159     -0.011840311    142748.86    
    214000   0.040101521   -38.483003      0.060149948   -38.422853     -0.013744442    0.0050082272  -0.0018653423   488.59058      17.237071      17.226128     -0.0035338525   145076.22    
    216000   0.040299464   -38.483428      0.060446852   -38.422981      0.0070609433  -0.00030922856 -0.00090770503  487.5383       17.402548      17.390324      0.0019480032   147546.61    
    218000   0.039749998   -38.48314       0.059622684   -38.423518     -0.014329912   -0.021135713   -0.028772126    486.40758      17.566895      17.552759     -0.021412584    149982.55    
    220000   0.04004899    -38.483319      0.060071155   -38.423248     -0.015072369   -0.0025614837  -0.011294857    485.46226      17.729845      17.713721     -0.0096429031   152465.02    
    222000   0.040026957   -38.483865      0.060038107   -38.423827     -0.011638705   -0.028709601   -0.0058142581   484.65114      17.892396      17.873746     -0.015387521    154993.44    
    224000   0.040256795   -38.483151      0.06038285    -38.422768     -0.0021303635  -0.004099147   -0.01134192     484.18966      18.053785      18.034225     -0.0058571435   157645.39    
    226000   0.039728892   -38.483009      0.059591027   -38.423418     -0.010745034   -0.0027511402   0.0043770633   483.86466      18.214138      18.193495     -0.0030397036   160342.51    
    228000   0.039687616   -38.483347      0.059529115   -38.423817     -0.00081005607  0.015360455    0.0053943548   483.4652       18.374117      18.352966      0.0066482512   163033.91    
    230000   0.040126846   -38.483748      0.060187934   -38.42356      -0.002846364   -0.017224763   -0.0055265634   482.91739      18.533013      18.511621     -0.0085325635   165677.42    
    232000   0.039385071   -38.483418      0.059075315   -38.424343      0.01610014     0.001974104    0.0072879017   482.7398       18.691331      18.66819       0.0084540486   168444       
    234000   0.040191525   -38.483539      0.060284949   -38.423254     -0.0068871173   0.0057224133  -0.013561194    482.55949      18.848497      18.823397     -0.0049086328   171208.6     
    236000   0.039891418   -38.482943      0.059834806   -38.423108      0.00070890485 -0.014490436    0.0037927971   482.27105      19.005744      18.978913     -0.0033295781   173959.2     
    238000   0.040217431   -38.483037      0.060323807   -38.422713     -0.0069602224  -0.0012786871  -0.0014073036   482.05109      19.160864      19.132486     -0.0032154044   176717.5     
    240000   0.039878716   -38.483967      0.059815754   -38.424151     -0.0032479932   0.0079747538   0.012742683    481.71643      19.31488       19.284519      0.0058231477   179428.86    
    242000   0.040068482   -38.48386       0.060100391   -38.423759     -0.0042229922  -0.0085992542  -0.0015253806   481.57835      19.467971      19.435849     -0.0047825423   182217.95    
    244000   0.039780527   -38.483908      0.059668477   -38.424239     -0.0043225368   0.014419472    0.0060024898   481.2144       19.619582      19.585412      0.0053664751   184910.29    
    246000   0.040242131   -38.483747      0.060360856   -38.423386      0.0075349893  -0.0024808108  -0.0010311182   481.29024      19.769329      19.733692      0.0013410201   187761.84    
    248000   0.03999881    -38.484198      0.059995888   -38.424202     -0.012356774    0.0021135671   0.00051399354  481.0064       19.917926      19.879859     -0.0032430711   190461.97    
    250000   0.03993667    -38.483044      0.059902681   -38.423141     -0.0099347442  -0.013482413   -0.0075378496   480.719        20.064357      20.02554      -0.010318336    193152.69    
    252000   0.039987541   -38.484195      0.059978984   -38.424217     -0.0017963731   0.0018501051  -0.0044560173   480.45144      20.208443      20.167336     -0.0014674284   195808.2     
    254000   0.040059895   -38.484079      0.060087511   -38.423992      0.012712422   -0.0097675603   0.0068231848   480.36319      20.35123       20.307568      0.0032560155   198526.42    
    256000   0.040077504   -38.48395       0.060113924   -38.423836     -0.0010772124  -0.0048705497  -0.010652428    480.07077      20.49187       20.445929     -0.0055333966   201137.81    
    258000   0.040345771   -38.483887      0.060516309   -38.42337       0.011258522   -0.0017521868  -0.0042479486   479.82347      20.629693      20.581225      0.0017527955   203725.53    
    260000   0.040206732   -38.484108      0.060307758   -38.4238       -0.00071092658  0.00489012    -0.002194453    479.52465      20.76492       20.713436      0.00066158013  206249.71    
    262000   0.040193089   -38.483909      0.060287295   -38.423621     -0.0022228116  -0.013897963   -0.011530056    479.09698      20.897364      20.842342     -0.0092169435   208670.7     
    264000   0.040107472   -38.483546      0.060158874   -38.423387      0.0039942176   0.0052412935  -0.0042209104   478.72804      21.024717      20.967727      0.0016715336   211042.73    
    266000   0.039838995   -38.483754      0.059756174   -38.423998     -0.0036955833   0.0027569652   0.0095679912   478.10576      21.150045      21.090567      0.0028764577   213266.94    
    268000   0.039809101   -38.483763      0.059711335   -38.424051     -0.012627515   -0.0054801815   0.004307799    477.61025      21.270591      21.208547     -0.0045999657   215458.74    
    270000   0.040133735   -38.484384      0.060198268   -38.424185      0.014810195    0.0091330528   0.0026881396   476.76787      21.387372      21.322743      0.0088771292   217423.99    
    272000   0.039679614   -38.484651      0.059517113   -38.425134      0.012120152    0.012303586    0.0056640179   475.89587      21.499555      21.432236      0.010029252    219284.99    
    274000   0.039643328   -38.484325      0.059462686   -38.424862     -0.00062794882 -0.010767904   -0.01417582     475.54763      21.607691      21.538552     -0.0085238911   221319.1     
    276000   0.039973026   -38.48455       0.059957213   -38.424593     -0.021294157   -0.0063553903  -0.0044716653   474.992        21.71152       21.638289     -0.010707071    223151.31    
    278000   0.039835448   -38.484903      0.059750854   -38.425152     -0.0044401779   0.013100855    0.0070387039   473.97316      21.805196      21.731097      0.005233127    224592.58    
    280000   0.040333993   -38.484583      0.060498642   -38.424085     -0.0032038659  -0.0025349951   0.0023395765   472.9311       21.89671       21.816443     -0.0011330948   225923.12    
    282000   0.039889933   -38.484406      0.059832578   -38.424573      0.0050316736   0.0034259807   0.0034443066   471.85177      21.9781        21.89988       0.0039673203   227110.64    
    284000   0.040070844   -38.484452      0.060103934   -38.424348      0.0059914152   0.0017805975   0.011683019    470.84603      22.052942      21.973467      0.0064850107   228162.37    
    286000   0.040058486   -38.484952      0.060085399   -38.424866     -0.028546478   -0.002615069   -0.0033928002   469.79546      22.120082      22.038362     -0.011518116    229020.76    
    288000   0.03989673    -38.485236      0.059842773   -38.425394      0.015360332    0.014116246    0.0082096206   468.51108      22.178399      22.092604      0.012562066    229560.39    
    290000   0.040398309   -38.484957      0.060595113   -38.424362     -0.0015787601   0.0068097896   0.0040645146   467.29131      22.224929      22.13806       0.0030985147   229915.19    
    292000   0.040210723   -38.485365      0.060313745   -38.425051      0.009802123    0.0016859703   0.00080612959  465.91646      22.256171      22.166968      0.0040980743   229860.74    
    294000   0.039908408   -38.48519       0.05986029    -38.425329     -0.0078548581   0.00043879608 -0.0063710395   464.06027      22.274538      22.185322     -0.0045957005   229323.64    
    296000   0.039962831   -38.485576      0.059941922   -38.425634      0.0072726276  -0.0045038904   0.0082105313   462.63679      22.272603      22.181319      0.0036597562   228559.1     
    298000   0.039860358   -38.484992      0.059788218   -38.425204      0.012891635   -0.0001085106  -0.0047253219   460.94012      22.243565      22.154729      0.0026859342   227151.37    
    300000   0.040392936   -38.485338      0.060587055   -38.424751     -0.022560782   -0.011736576   -0.0042484347   459.28434      22.195055      22.105756     -0.012848597    225342.57    
Loop time of 835.17 on 1 procs for 100000 steps with 25781 atoms

Performance: 10345.199 tau/day, 119.736 timesteps/s, 3.087 Matom-step/s
100.0% CPU use with 1 MPI tasks x 1 OpenMP threads

MPI task timing breakdown:
Section |  min time  |  avg time  |  max time  |%varavg| %total
---------------------------------------------------------------
Pair    | 732.26     | 732.26     | 732.26     |   0.0 | 87.68
Neigh   | 7.3061     | 7.3061     | 7.3061     |   0.0 |  0.87
Comm    | 5.5863     | 5.5863     | 5.5863     |   0.0 |  0.67
Output  | 0.12002    | 0.12002    | 0.12002    |   0.0 |  0.01
Modify  | 81.947     | 81.947     | 81.947     |   0.0 |  9.81
Other   |            | 7.952      |            |       |  0.95

Nlocal:          25781 ave       25781 max       25781 min
Histogram: 1 0 0 0 0 0 0 0 0 0
Nghost:          12890 ave       12890 max       12890 min
Histogram: 1 0 0 0 0 0 0 0 0 0
Neighs:         378822 ave      378822 max      378822 min
Histogram: 1 0 0 0 0 0 0 0 0 0

Total # of neighbors = 378822
Ave neighs/atom = 14.693844
Neighbor list builds = 393
Dangerous builds = 0
unfix           1

################the first compression at low P (P = 0.001) and no dehydration##############
#fix             1 all npt temp ${tf} ${tf} 0.01 iso 0.001 0.001 10
fix             1 all npt temp ${tf} ${tf} 0.01 x 0.0 0.0 5.0 y 0.001 0.001 10 z 0.001 0.001 10
fix             1 all npt temp 0.04 ${tf} 0.01 x 0.0 0.0 5.0 y 0.001 0.001 10 z 0.001 0.001 10
fix             1 all npt temp 0.04 0.04 0.01 x 0.0 0.0 5.0 y 0.001 0.001 10 z 0.001 0.001 10

#variable a loop 400
#label loop
#                group g5 type 5 5

#variable        n5 equal count(g5)
#variable        rmn equal 1789 #dehydration
#variable        fraction equal ${rmn}/${n5}
#                set group g5 type/fraction 9 ${fraction} 54321

#                group g9 type 9 9
#                delete_atoms group g9
#                group g5 delete
#                group g9 delete
run             2000000
Generated 0 of 36 mixed pair_coeff terms from geometric mixing rule
Per MPI rank memory allocation (min/avg/max) = 19.71 | 19.71 | 19.71 Mbytes
   Step          Temp          PotEng         KinEng         TotEng          Pxx            Pyy            Pzz             Lx             Ly             Lz           Press          Volume    
    300000   0.040392936   -38.485338      0.060587055   -38.424751     -0.022560782   -0.011736576   -0.0042484347   459.28434      22.195055      22.105756     -0.012848597    225342.57    
    302000   0.040113713   -38.485243      0.060168236   -38.425075      0.0010527602   0.012399643   -0.0050565569   457.70374      22.106946      22.01749       0.0027986156   222782.48    
    304000   0.040081735   -38.485977      0.06012027    -38.425856     -0.013885917    0.005716336   -0.0088847088   456.92621      22.006681      21.913081     -0.0056847631   220345.44    
    306000   0.039917497   -38.48595       0.059873923   -38.426076     -0.0038116155  -0.0025978462  -0.0053774563   456.28998      21.913476      21.821353     -0.0039289726   218189.52    
    308000   0.039665075   -38.485565      0.059495305   -38.42607      -0.016712429   -0.0056281829  -0.0062018017   455.42272      21.829491      21.736767     -0.0095141378   216099.25    
    310000   0.039899764   -38.486115      0.059847324   -38.426268      0.019390713   -0.0071057349  -0.00083189268  454.44046      21.747324      21.654742      0.0038176951   214010.86    
    312000   0.040056567   -38.486529      0.060082521   -38.426446      0.023530019    0.0090000746   0.0071767626   453.80677      21.668812      21.575179      0.013235619    212158.52    
    314000   0.039950017   -38.486622      0.059922701   -38.426699     -0.007007186    0.0022410687  -0.0067340841   453.14384      21.588974      21.494949     -0.0038334005   210283.16    
    316000   0.039944287   -38.486301      0.059914107   -38.426387      0.0016860355   0.0073341453  -0.001797235    452.6439       21.515769      21.416229      0.0024076486   208572.26    
    318000   0.040008821   -38.486968      0.060010903   -38.426957      0.00071015205  0.0065748112   0.0024646326   451.76286      21.441054      21.338409      0.0032498653   206689.63    
    320000   0.039690092   -38.486536      0.059532828   -38.427003     -0.013509467   -0.010665565   -0.0059492033   451.37276      21.364867      21.267691     -0.010041412    205095.38    
    322000   0.039842238   -38.486275      0.059761038   -38.426514      0.00017863302  0.0014827657   0.0032712494   450.80237      21.290661      21.197269      0.0016442161   203448.86    
    324000   0.039880422   -38.486773      0.059818313   -38.426955     -0.0015644603   0.0013675159  -0.002131489    450.18151      21.218035      21.125384     -0.00077614448  201788.97    
    326000   0.040378953   -38.486903      0.060566081   -38.426337     -0.0061950892  -0.0060306018   0.00010375417  449.61673      21.148104      21.056047     -0.0040406456   200212.29    
    328000   0.039834381   -38.487164      0.059749253   -38.427415     -0.025270854   -0.0037361465  -0.0099010559   448.75629      21.079005      20.9853       -0.012969352    198507.01    
    330000   0.040023217   -38.487113      0.060032497   -38.42708       0.017928058   -0.0078124853  -0.0080313221   447.83853      21.008372      20.918002      0.00069475013  196804.06    
    332000   0.040112536   -38.487162      0.060166471   -38.426996      0.0060081463  -0.0012280498  -0.016329301    447.33705      20.940144      20.849545     -0.003849735    195303.99    
    334000   0.039838938   -38.48641       0.059756089   -38.426654     -0.0055635921   3.6082388e-05  0.00027181865  447.09591      20.873962      20.782608     -0.001751897    193957.08    
    336000   0.040060431   -38.486562      0.060088315   -38.426474      0.0090351351  -0.00045638755  0.0030261653   446.5772       20.806062      20.717467      0.0038683043   192496.61    
    338000   0.03997926    -38.486667      0.059966564   -38.4267       -0.0029597672  -0.0025672801   0.0034457769   446.21337      20.737648      20.647814     -0.00069375681  191062.81    
    340000   0.040148832   -38.487051      0.060220912   -38.42683      -0.010201582   -0.0045753109   0.0040707301   446.15043      20.675001      20.580798     -0.0035687211   189840.58    
    342000   0.040101039   -38.487351      0.060149226   -38.427202     -0.0067396286  -0.0039880987  -0.010415178    445.90673      20.611512      20.517764     -0.007047635    188574.9     
    344000   0.039740786   -38.486484      0.059608867   -38.426875     -0.003875142    0.0075497406   0.00025679676  445.27245      20.547639      20.450398      0.0013104651   187106.77    
    346000   0.039924024   -38.487009      0.059883713   -38.427125      0.0026929767   0.0011659076  -0.0031450266   444.73604      20.484665      20.389005      0.00023795256  185749.31    
    348000   0.040253033   -38.487057      0.060377208   -38.42668      -0.0014381925   0.0072578581   0.018985602    444.46956      20.420855      20.325436      0.0082684226   184482.77    
    350000   0.039607925   -38.487098      0.059409583   -38.427688      0.0066048047  -0.00011228851 -0.0001858904   444.39024      20.358797      20.266147      0.0021022086   183352.91    
    352000   0.040081367   -38.486654      0.060119718   -38.426535      0.0099120427  -0.004704862    0.0058590024   444.2141       20.298805      20.204072      0.0036887277   182180.43    
    354000   0.039942858   -38.487665      0.059911963   -38.427753     -0.010816377   -0.0095340744  -0.013658849    444.17882      20.236169      20.142778     -0.011336433    181052.91    
    356000   0.039849585   -38.488095      0.059772058   -38.428323      0.00023621711  0.0017584356   0.0068516373   443.71552      20.173703      20.079868      0.0029487633   179742.64    
    358000   0.040153331   -38.487332      0.060227661   -38.427104      0.0048469052   0.0056367703   0.0040893745   443.69502      20.111274      20.022206      0.0048576833   178663.59    
    360000   0.040203161   -38.48783       0.060302403   -38.427528      0.015161106    0.014560664    0.011548938    443.39802      20.049722      19.965037      0.013756903    177489.32    
    362000   0.039836179   -38.486981      0.059751951   -38.427229     -0.014210671    0.012106707    0.0033666436   443.04104      19.991791      19.906326      0.00042089318  176313.99    
    364000   0.040198438   -38.487233      0.060295319   -38.426938     -0.0040520935   0.00065217807  0.0063847887   442.6361       19.931773      19.848844      0.00099495776  175116.87    
    366000   0.039940304   -38.487251      0.059908132   -38.427342      0.001070278   -0.0070497872  -0.01386467     442.21981      19.874338      19.790934     -0.0066147265   173939.08    
    368000   0.039678115   -38.487977      0.059514864   -38.428463     -0.01067879    -0.0044310618  -0.0073838573   441.95578      19.817741      19.735912     -0.007497903    172858.28    
    370000   0.040051366   -38.487941      0.060074719   -38.427866      0.012380947   -0.015779629   -0.011094733    441.82101      19.756935      19.677187     -0.0048311382   171762.74    
    372000   0.039986469   -38.488484      0.059977376   -38.428507     -0.010886681   -0.0154779      0.003930609    441.6369       19.697773      19.620187     -0.0074779906   170681.17    
    374000   0.039881189   -38.488632      0.059819463   -38.428813     -0.0014361528   0.0014475959  -0.01029995     441.32483      19.643981      19.563089     -0.0034295024   169599.78    
    376000   0.040007777   -38.489073      0.060009338   -38.429063      0.010682463   -0.003933146   -0.0012092242   441.04032      19.590615      19.508621      0.0018466975   168559.38    
    378000   0.040028071   -38.488538      0.060039778   -38.428498      0.008704563   -0.005108478   -0.010808113    440.95446      19.534497      19.455299     -0.0024040092   167584.51    
    380000   0.039962522   -38.488807      0.059941457   -38.428865      0.0071604923   0.017261506    0.002932625    441.21815      19.478013      19.399639      0.0091182078   166721.52    
    382000   0.040025707   -38.489082      0.060036232   -38.429046      0.0037658222  -0.00081372433 -0.0020200657   440.94676      19.425511      19.344625      0.0003106774   165698.63    
    384000   0.040185183   -38.489486      0.060275437   -38.429211      0.0091508393   0.011781457   -0.0025370151   440.95619      19.366945      19.291684      0.0061317604   164750.48    
    386000   0.039970983   -38.489344      0.059954148   -38.42939      -0.010725378    0.0093044194  -0.014951012    440.81203      19.311159      19.240209     -0.0054573234   163784.03    
    388000   0.040185787   -38.489112      0.060276343   -38.428835     -0.0094425441  -0.015693026   -0.0083122087   440.51929      19.25263       19.184486     -0.01114926     162706.6     
    390000   0.03994941    -38.489448      0.05992179    -38.429527     -0.024324332   -0.0098763372  -0.0085576118   440.40844      19.198853      19.131639     -0.01425276     161764.45    
    392000   0.04003189    -38.489332      0.060045506   -38.429286      0.0033501795   0.0048182433  -0.00094562981  440.04433      19.145927      19.077744      0.0024075977   160731.08    
    394000   0.039560543   -38.488228      0.059338512   -38.428889      0.025679895    0.0050675779   0.0099325146   439.58484      19.093393      19.025905      0.013559996    159687.58    
    396000   0.039849771   -38.488657      0.059772338   -38.428885     -0.0093453373   0.00036338024  0.014937264    439.33174      19.039178      18.9735        0.0019851023   158704.12    
    398000   0.040137576   -38.488545      0.060204029   -38.428341      0.018376475   -0.0083518897   0.0058264414   438.97757      18.986048      18.921601      0.0052836755   157701.13    
    400000   0.039658284   -38.488935      0.059485119   -38.42945       0.007055301   -0.023176788    0.0063561264   438.82086      18.933364      18.868701     -0.0032551204   156767.87    
    402000   0.040007349   -38.488943      0.060008696   -38.428934     -0.014122512    0.0026429701  -0.0011249162   438.51218      18.881441      18.816752     -0.0042014859   155797.85    
    404000   0.039544646   -38.488911      0.059314669   -38.429596      0.013700157   -0.0052439172   0.020119808    438.22651      18.829178      18.766989      0.0095253493   154854.77    
    406000   0.040297652   -38.48903       0.060444134   -38.428586     -0.024897367    0.0035110217   0.0018321199   438.19685      18.781252      18.713539     -0.0065180753   154010.28    
    408000   0.040199035   -38.489221      0.060296214   -38.428924      0.012077026    0.016296299    0.011298538    438.14657      18.727455      18.662502      0.013223954    153132.74    
    410000   0.039911168   -38.489276      0.05986443    -38.429411     -0.020440922   -0.008613668    0.0053918524   437.99133      18.676091      18.612135     -0.0078875793   152246.63    
    412000   0.040197762   -38.48887       0.060294304   -38.428576      0.0090222402   0.010754156   -0.0016458414   438.0318       18.626655      18.563837      0.0060435181   151463.59    
    414000   0.039954601   -38.489507      0.059929577   -38.429578      0.017909809    0.011194895    0.011970114    437.75066      18.576597      18.510509      0.013691606    150525.94    
    416000   0.039924059   -38.48965       0.059883766   -38.429766      0.0013275933  -0.011579356   -0.006138936    437.7031       18.525651      18.458201     -0.0054635661   149672.65    
    418000   0.039824741   -38.489455      0.059734794   -38.42972       0.0008205061   0.0053740117  -0.013626434    437.5309       18.473643      18.409472     -0.0024773056   148799.88    
    420000   0.039915727   -38.489224      0.059871268   -38.429353     -0.021551115   -0.014658142   -0.023041012    437.24915      18.426231      18.359963     -0.01975009     147923.54    
    422000   0.039978312   -38.490229      0.059965142   -38.430264     -0.0097711114   0.017570574   -0.0060477543   437.16477      18.377519      18.313442      0.00058390262  147130.27    
    424000   0.039815299   -38.489193      0.059720632   -38.429473      0.0030802374  -0.010107588   -0.0051332648   437.17745      18.328554      18.262092     -0.0040535386   146331.05    
    426000   0.040140575   -38.489697      0.060208527   -38.429489     -0.0071846091   0.010552962    0.0042433167   436.97618      18.278177      18.21594       0.0025372233   145493.04    
    428000   0.039687783   -38.489393      0.059529365   -38.429863      0.0031196016   0.0019838831   0.011122659    436.79918      18.229711      18.172857      0.0054087144   144705.42    
    430000   0.039928946   -38.489835      0.059891096   -38.429944     -0.00034814008 -0.0010527528   0.010482121    436.75552      18.182088      18.124785      0.0030270761   143931.22    
    432000   0.040459874   -38.48975       0.060687457   -38.429062      0.0052686861   0.0084657558  -0.0039682694   436.69111      18.133526      18.077579      0.0032553908   143151.83    
    434000   0.039978274   -38.489635      0.059965085   -38.429669     -0.0075277125  -0.009715139   -0.023122544    436.35103      18.088068      18.032202     -0.013455132    142323.61    
    436000   0.039540968   -38.490005      0.059309152   -38.430696      0.0049660752   0.022100521   -0.0025291795   436.11438      18.040284      17.986601      0.008179139    141511.88    
    438000   0.040204078   -38.489663      0.060303778   -38.429359      0.0021926847   0.0080078264  -0.014336623    436.13965      17.992385      17.938631     -0.001378704    140767.89    
    440000   0.040130036   -38.489783      0.060192719   -38.42959       0.016775126    0.0023307599   0.0039962828   436.09999      17.944963      17.892331      0.007700723    140021.77    
    442000   0.039900222   -38.4893        0.059848011   -38.429452      0.0050011801  -0.0010425349   0.009453384    435.42869      17.896636      17.850242      0.0044706764   139101.74    
    444000   0.040343157   -38.490599      0.060512389   -38.430086      0.0044843031   0.0041562209  -0.005726854    435.18224      17.850149      17.802422      0.00097122333  138290.42    
    446000   0.039831082   -38.490409      0.059744306   -38.430664     -0.016828973   -0.012592555    8.4733722e-05  435.09085      17.80761       17.758213     -0.0097789313   137589.35    
    448000   0.039828607   -38.489634      0.059740593   -38.429894     -0.024573644    0.0013068365  -0.0014701932   434.79974      17.758031      17.712363     -0.0082456669   136760.47    
    450000   0.040052284   -38.489659      0.060076095   -38.429583      0.011888478    0.0013699136   0.013366044    434.74784      17.71358       17.665817      0.0088748117   136043.4     
    452000   0.040075544   -38.490188      0.060110984   -38.430077     -0.017206466    0.0012883773   0.00037834499  434.83883      17.668381      17.622004     -0.0051799146   135388.06    
    454000   0.039920821   -38.489631      0.059878909   -38.429752     -0.00391965    -0.012331544   -0.00087053919  434.59496      17.623313      17.575271     -0.0057072445   134609.05    
    456000   0.03970676    -38.489853      0.059557829   -38.430295     -0.0011824309  -0.0019392784   0.014060218    434.42401      17.58179       17.530248      0.0036461696   133895.19    
    458000   0.039711035   -38.489645      0.059564243   -38.43008       0.0081151544   0.0107837     -0.0031923705   434.40604      17.535721      17.487407      0.0052354945   133212.48    
    460000   0.040314014   -38.490273      0.060468675   -38.429804      0.02017593     0.015748749    0.013597865    434.23754      17.487652      17.443566      0.016507515    132462.87    
    462000   0.039931147   -38.4898        0.059894398   -38.429905      0.012214513   -0.011659094   -0.0042367452   434.62979      17.44465       17.405987     -0.0012271089   131971.57    
    464000   0.039955515   -38.490616      0.059930949   -38.430685     -0.00072010475  0.018272383    0.019670991    434.30987      17.400052      17.360326      0.012407757    131192.24    
    466000   0.040340973   -38.490272      0.060509112   -38.429762     -0.0075329936   0.014966526   -0.0019908604   434.14351      17.355562      17.319088      0.001814224    130495.95    
    468000   0.040210978   -38.49          0.060314128   -38.429686      0.013181758   -0.026057116   -0.0029806886   434.00584      17.312825      17.278661     -0.005285349    129829.56    
    470000   0.039870079   -38.489473      0.059802799   -38.42967       0.019584956    0.018867429    0.0081029665   434.23948      17.272948      17.232348      0.015518451    129252.88    
    472000   0.039559079   -38.489907      0.059336316   -38.43057      -0.019554548   -0.011787407   -0.013476447    433.97142      17.230075      17.190106     -0.014939467    128536.62    
    474000   0.039960766   -38.489869      0.059938825   -38.429931      0.016642746    0.008233366    0.0083943827   433.90018      17.184474      17.149836      0.011090165    127875.12    
    476000   0.040114377   -38.489951      0.060169232   -38.429782     -0.0038654903   0.0016448736   0.0068403995   433.76914      17.142695      17.108196      0.0015399276   127216.06    
    478000   0.040219977   -38.490734      0.060327626   -38.430406     -0.036347486    0.0028013262  -0.0078039718   433.92433      17.097034      17.069523     -0.013783377    126635.7     
    480000   0.040040399   -38.490439      0.060058269   -38.430381      0.016778521   -0.015112016   -0.0092065511   433.95699      17.056404      17.032011     -0.002513349    126066.61    
    482000   0.04031485    -38.490467      0.06046993    -38.429997     -0.012336999   -0.0016632938  -0.0089440916   433.81394      17.017408      16.991894     -0.0076481283   125440.76    
    484000   0.040173726   -38.490521      0.060258252   -38.430263     -0.00058925274 -0.012324307   -0.011315531    433.66904      16.973681      16.951466     -0.0080763633   124779.06    
    486000   0.039931943   -38.490005      0.059895591   -38.430109     -0.013144945   -0.007573276    0.0032810189   433.79979      16.932051      16.913404     -0.0058124007   124230.98    
    488000   0.0403897     -38.490809      0.0605822     -38.430227     -0.0079567292   0.011051369   -0.0014051947   433.7386       16.885881      16.873075      0.00056314851  123579.39    
    490000   0.039710674   -38.49033       0.059563701   -38.430766      0.026436771   -0.0013872943  -0.00084631415  433.48844      16.845155      16.834054      0.008067721    122925.29    
    492000   0.040338196   -38.490063      0.060504947   -38.429558     -0.029814092    0.021562906   -0.010768006    433.2988       16.802376      16.793521     -0.0063397306   122264.38    
    494000   0.039993009   -38.490856      0.059987187   -38.430869     -0.0079426236  -0.0086964729  -0.0059904521   433.1449       16.76293       16.753251     -0.0075431829   121641.63    
    496000   0.04007314    -38.489839      0.060107379   -38.429732      0.0056520737  -0.0091074315   0.019276908    432.86921      16.719908      16.713096      0.0052738502   120961.58    
    498000   0.039977944   -38.489987      0.05996459    -38.430022     -0.002277696   -0.0069258464  -0.016123282    432.72829      16.679552      16.67962      -0.0084422746   120388.73    
    500000   0.039998828   -38.490325      0.059995915   -38.430329     -0.0028239842  -0.021783212   -0.022574315    432.50884      16.638177      16.640348     -0.01572717     119746.58    
    502000   0.040055147   -38.490457      0.060080391   -38.430377      0.023153937    0.014538491    0.0075853882   432.80466      16.595769      16.606505      0.015092605    119279.98    
    504000   0.039846752   -38.489971      0.05976781    -38.430203     -0.026599298    0.011580918   -0.0095425081   432.81549      16.553411      16.567473     -0.0081869627   118698.86    
    506000   0.040196532   -38.490618      0.060292459   -38.430326     -0.014748767   -0.003411772   -0.011622169    432.8587       16.513681      16.532689     -0.0099275694   118177.16    
    508000   0.039725769   -38.490706      0.059586342   -38.431119      0.054508395    0.013067966    0.020851322    432.85929      16.470883      16.496487      0.029475894    117612.93    
    510000   0.040089446   -38.491407      0.060131836   -38.431275      0.021193646    0.0097413445   0.02197598     432.82514      16.430921      16.45967       0.01763699     117056.49    
    512000   0.040015663   -38.491368      0.060021167   -38.431347     -0.010359556    0.0032555221   0.011222607    432.62794      16.392214      16.421349      0.0013728577   116455.77    
    514000   0.039937392   -38.492041      0.059903765   -38.432137      0.016616966    0.019367936   -0.021980231    432.50286      16.355934      16.38186       0.0046682237   115885.08    
    516000   0.04023036    -38.492558      0.060343199   -38.432215      0.036820847    0.0097760165   0.0082277745   432.542        16.316421      16.349542      0.018274879    115387.5     
    518000   0.040362008   -38.493031      0.060540663   -38.43249       0.039369702    0.010048877    0.024669763    432.54221      16.275738      16.311437      0.024696114    114831.6     
    520000   0.039866626   -38.492572      0.05979762    -38.432775      0.024936233   -0.00041947353  0.02620894     432.48177      16.233506      16.275214      0.016908567    114263.32    
    522000   0.040069263   -38.493306      0.060101562   -38.433204      0.009068265   -0.0064750965   0.0096923146   432.84812      16.196725      16.245267      0.004095161    113891.06    
    524000   0.039754231   -38.493828      0.059629034   -38.434199      0.030386056   -0.0040686397   0.023802983    433.32245      16.156712      16.207917      0.0167068      113472.69    
    526000   0.040279867   -38.494991      0.060417457   -38.434573      0.047308993   -0.016476099    0.00071754051  433.40928      16.120249      16.174869      0.010516812    113008.4     
    528000   0.040201837   -38.49515       0.060300417   -38.43485      -0.013747313   -0.019250369   -0.0068871648   433.4693       16.080381      16.136442     -0.013294949    112476.68    
    530000   0.039596354   -38.495427      0.059392227   -38.436034      0.012682886    0.00058718403  0.0090842112   433.59911      16.04194       16.101264      0.0074514271   111996.7     
    532000   0.040033412   -38.495278      0.060047789   -38.43523       0.019144292    0.0013839998   0.016893284    433.83007      16.005946      16.068486      0.012473859    111577.32    
    534000   0.040341524   -38.49519       0.060509939   -38.43468      -0.0014319716  -0.0087826006   0.0068034039   433.44784      15.970327      16.032762     -0.0011370561   110983.65    
    536000   0.040274834   -38.495675      0.060409908   -38.435265      0.0018758006  -0.0078211979  -0.0072114027   433.58706      15.933647      16.000738     -0.0043856      110543.07    
    538000   0.040684687   -38.494716      0.061024663   -38.433691     -0.014113452   -0.01063784    -0.0032952622   433.50061      15.895468      15.96299      -0.0093488514   109996.09    
    540000   0.040187679   -38.496529      0.06027918    -38.43625      -0.0041473035  -0.00081123608  0.0052264676   433.5069       15.859156      15.931777      8.9309352e-05  109531.82    
    542000   0.040123203   -38.496565      0.060182471   -38.436383     -0.0062699722  -0.0084485943  -0.015645346    433.57031      15.819954      15.900737     -0.010121304    109064.15    
    544000   0.040092679   -38.49574       0.060136686   -38.435603     -0.021606405   -0.0081892909  -0.00011140844  433.38299      15.780742      15.866578     -0.0099690348   108513.19    
    546000   0.040148987   -38.495853      0.060221144   -38.435631      0.015741494   -0.0051645183  -0.0088727593   433.16491      15.743929      15.833159      0.00056807198  107977.68    
    548000   0.040027659   -38.496205      0.060039159   -38.436165      0.029985485    0.007010922    0.013705583    433.14754      15.706151      15.798477      0.016900663    107478.31    
    550000   0.040191028   -38.49667       0.060284203   -38.436386      0.00047017531 -0.01287524    -0.00051153737  433.12758      15.667612      15.766701     -0.004305534    106994.01    
    552000   0.040158634   -38.495937      0.060235614   -38.435702      0.0029667129   0.002053929    0.013046709    433.28031      15.631763      15.736383      0.0060224503   106581.5     
    554000   0.040331236   -38.495982      0.060494507   -38.435488      0.031071279    0.020612285   -0.0066795743   433.30789      15.593328      15.702649      0.01500133     106098.28    
    556000   0.039889316   -38.496351      0.059831652   -38.436519      0.019896799   -0.0077103616   0.010526912    433.50945      15.556503      15.668567      0.0075711165   105667.11    
    558000   0.039960857   -38.496281      0.05993896    -38.436342     -0.0090991435   0.018091476   -0.0008852475   433.65308      15.520731      15.637147      0.0027023616   105247.58    
    560000   0.039914076   -38.496269      0.059868791   -38.4364       -0.0063117089   0.022013972    0.025462504    433.70556      15.485654      15.605424      0.013721589    104809.37    
    562000   0.039984121   -38.496142      0.059973855   -38.436168     -0.032235957   -0.017944039    0.00027758882  433.89684      15.449014      15.571757     -0.016634136    104381.82    
    564000   0.039890337   -38.496474      0.059833185   -38.436641      0.000457284   -0.001693094    6.4173327e-05  433.69465      15.414831      15.543396     -0.00039054557  103912.73    
    566000   0.040402813   -38.496285      0.060601869   -38.435684      0.016178785    0.013621537    0.009836985    433.58574      15.377972      15.509969      0.013212436    103415.34    
    568000   0.040030182   -38.496024      0.060042943   -38.435981     -0.016502571    0.001471627   -0.00095600118  433.61603      15.339536      15.47614      -0.0053289816   102939.06    
    570000   0.039792444   -38.496083      0.059686351   -38.436396     -0.024985638    0.0038809484  -0.019431537    433.93531      15.304604      15.439561     -0.013512076    102537.34    
    572000   0.040029113   -38.496204      0.060041341   -38.436162     -0.0026841935   0.022831304    0.0080747291   434.1551       15.271081      15.40967       0.0094072799   102166.38    
    574000   0.039932081   -38.496121      0.059895799   -38.436225     -0.0055048796   0.019040596    0.0027269285   434.06909      15.236556      15.374268      0.0054208818   101681.07    
    576000   0.03983917    -38.496446      0.059756437   -38.43669      -0.01502898     0.0093765198   0.0042511424   434.16217      15.204297      15.342434     -0.00046710603  101277.41    
    578000   0.040018984   -38.496504      0.060026147   -38.436478      0.01489765    -0.010126707    0.0007496868   434.03577      15.168556      15.308226      0.0018402099   100784.7     
    580000   0.040248261   -38.496068      0.060370049   -38.435698     -0.037195402    0.0065742291  -0.015383811    433.76373      15.136439      15.275667     -0.015334995    100294.51    
    582000   0.040016516   -38.496373      0.060022445   -38.43635      -0.016361233   -0.02030996     0.0090497264   433.74308      15.104645      15.243118     -0.0092071557   99865.825    
    584000   0.04040464    -38.496269      0.060604608   -38.435664      0.0098673824   0.015937362   -0.0061261118   433.53076      15.068191      15.210971      0.0065595443   99366.036    
    586000   0.039967959   -38.496186      0.059949613   -38.436237      0.015699825    0.019813527   -0.005038645    433.55376      15.032039      15.177756      0.010158235    98916.427    
    588000   0.039946122   -38.496436      0.059916859   -38.436519     -0.035595064    0.0013374767  -0.00037834298  433.56585      15.000627      15.145735     -0.01154531     98504.217    
    590000   0.040113899   -38.496422      0.060168514   -38.436253     -0.007813561   -0.001023459   -0.01402869     433.48277      14.966424      15.117885     -0.0076219035   98080.103    
    592000   0.039624519   -38.496693      0.059434473   -38.437258     -0.010416002    0.01409428     0.0044873873   433.79744      14.935818      15.084844      0.0027218883   97736.509    
    594000   0.040372973   -38.496057      0.06055711    -38.4355        0.0086613512   0.0022488749  -0.012014204    433.41211      14.902425      15.053901     -0.00036799263  97231.51     
    596000   0.040394222   -38.496139      0.060588983   -38.43555      -0.010546334    0.015658675    0.022010856    433.43301      14.869717      15.021425      0.0090410658   96813.477    
    598000   0.040065096   -38.496339      0.060095312   -38.436243     -0.0027858155   0.001027224    0.025636722    433.54426      14.835827      14.990791      0.0079593769   96420.581    
    600000   0.039990816   -38.496183      0.059983898   -38.436199     -0.0033246871  -0.0076645906  -0.011505557    433.52891      14.8043        14.958618     -0.0074982782   96005.789    
    602000   0.040443696   -38.496365      0.060663191   -38.435702     -0.014372378    0.0067644052   0.015571605    433.44828      14.772976      14.924323      0.002654544    95565.237    
    604000   0.040068335   -38.497087      0.060100172   -38.436987     -0.015392712   -0.027517588   -0.036348465    433.53164      14.740219      14.894721     -0.026419588    95182.496    
    606000   0.039222015   -38.496735      0.058830741   -38.437904      0.00015822836 -0.0039103595   0.03556428     433.38654      14.706844      14.865527      0.01060405     94749.126    
    608000   0.040114576   -38.496131      0.06016953    -38.435962     -0.0156503     -0.017351072   -0.0037401598   433.48282      14.672169      14.833801     -0.012247177    94344.948    
    610000   0.039988148   -38.496634      0.059979896   -38.436654     -0.00012816125 -0.013395278   -0.0086696101   433.54709      14.63951       14.802233     -0.0073976832   93948.542    
    612000   0.040112226   -38.496414      0.060166005   -38.436248     -0.019505385    0.0092551378   0.018232767    433.77526      14.606428      14.771262      0.0026608401   93589.347    
    614000   0.039957346   -38.496752      0.059933694   -38.436819      0.015513358    0.0044440707   0.013789096    433.87082      14.576609      14.744213      0.011248842    93247.79     
    616000   0.039887875   -38.496735      0.059829491   -38.436906     -0.019490147    0.019770825    0.0095098001   433.71766      14.542393      14.712547      0.0032634926   92796.342    
    618000   0.039653515   -38.496214      0.059477965   -38.436736     -0.00058732633 -0.0098508226  -0.013209975    433.78424      14.514116      14.681297     -0.007882708    92433.37     
    620000   0.039794528   -38.497458      0.059689476   -38.437768      0.00019779188 -0.0022319983   0.0021268267   433.80698      14.486037      14.646417      3.0873446e-05  92040.195    
    622000   0.039785799   -38.496743      0.059676384   -38.437067     -0.011805769   -0.010258449   -0.0023911263   433.91921      14.456664      14.613614     -0.0081517812   91671.555    
    624000   0.039804543   -38.49652       0.059704498   -38.436816     -0.0023032806   0.015495697    0.0029624953   433.57979      14.426034      14.580197      0.0053849706   91196.754    
    626000   0.039917819   -38.497171      0.059874406   -38.437296      0.0034194012   0.015618261    0.0055617932   433.82085      14.396885      14.54786       0.0081998184   90861.113    
    628000   0.03990358    -38.497056      0.059853049   -38.437203      0.024036899    0.002089532    0.0046218721   433.7124       14.365262      14.5163        0.010249434    90442.243    
    630000   0.039877413   -38.496659      0.059813799   -38.436845      0.016830751    0.01553696     0.014680633    433.5782       14.334572      14.482471      0.015682781    90010.842    
    632000   0.039814327   -38.497         0.059719174   -38.437281     -0.0048927274   0.012339852   -0.0019853079   433.59154      14.302888      14.454533      0.0018206057   89641.395    
    634000   0.040298976   -38.496967      0.060446119   -38.43652      -0.020475399    0.0029877768   0.0010673992   433.35914      14.275385      14.42088      -0.0054734075   89212.879    
    636000   0.04002546    -38.497083      0.060035861   -38.437047      0.016364972    0.0027507704   0.0015318992   433.39083      14.244798      14.386513      0.0068825473   88816.067    
    638000   0.039684252   -38.49715       0.059524069   -38.437626      0.01878659     0.027426301    0.028098779    433.37234      14.213365      14.35409       0.024770557    88416.591    
    640000   0.039574995   -38.497408      0.05936019    -38.438048      0.015524026    0.026533145    0.0081414355   433.45518      14.183373      14.323644      0.016732869    88059.704    
    642000   0.040119342   -38.497196      0.060176679   -38.437019      0.030231163   -0.014016964    0.030851319    433.67201      14.153613      14.29514       0.015688506    87743.937    
    644000   0.039641114   -38.497716      0.059459364   -38.438256      0.028644551   -0.015385578    0.017152509    433.85982      14.122128      14.261547      0.010137161    87380.841    
    646000   0.040248775   -38.498727      0.060370821   -38.438357      0.061867174    0.016900443    0.018469145    433.51337      14.091261      14.231789      0.032412254    86938.44     
    648000   0.039919633   -38.499616      0.059877127   -38.439739     -0.040102312   -0.0055027478  -0.036058335    433.3694       14.063882      14.199772     -0.027221132    86545.568    
    650000   0.040243758   -38.498832      0.060363295   -38.438469     -0.027978825    0.026032887   -0.0018853929   433.42154      14.035455      14.169864     -0.0012771103   86199.087    
    652000   0.040408781   -38.499361      0.06061082    -38.43875      -0.011438173    0.014124391    0.018646291    433.59224      14.004161      14.141856      0.007110836    85870.706    
    654000   0.039649492   -38.499364      0.059471931   -38.439892     -0.012230984    0.024467157    0.00620224     433.67012      13.975445      14.109508      0.0061461376   85513.963    
    656000   0.039870036   -38.499033      0.059802734   -38.439231      0.018127563   -0.013583665    0.0082016052   433.52852      13.942146      14.076168      0.0042485012   85080.834    
    658000   0.039979562   -38.49868       0.059967018   -38.438713      0.0046430959   0.032434508    0.012672963    433.61798      13.913034      14.050357      0.016583522    84764.981    
    660000   0.040152045   -38.499667      0.060225731   -38.439442     -0.01413751    -0.028222296    0.0136438      433.48762      13.885216      14.022636     -0.0095720018   84403.212    
    662000   0.039844296   -38.499826      0.059764126   -38.440062      0.026227194   -0.0091725206  -0.01976299     433.22152      13.853224      13.989885     -0.00090277226  83960.502    
    664000   0.039648781   -38.499981      0.059470864   -38.44051       0.0019357857   0.0045179588  -0.0015927993   433.29175      13.819065      13.960805      0.001620315    83592.931    
    666000   0.039818748   -38.501125      0.059725806   -38.4414       -0.020286464   -0.013370003   -0.0073991922   433.46933      13.788419      13.932864     -0.013685219    83274.732    
    668000   0.039897769   -38.500791      0.059844332   -38.440947     -0.02749154     0.003275006    0.01892605     433.45915      13.760096      13.909487     -0.0017634946   82962.29     
    670000   0.040429621   -38.501335      0.060642079   -38.440693      0.03476939     0.0038536276   0.0024194677   433.15163      13.735609      13.881107      0.013680828    82587.052    
    672000   0.039950497   -38.501203      0.059923421   -38.44128      -0.020996829   -0.017687379   -0.0016633763   433.01141      13.708844      13.848988     -0.013449195    82208.78     
    674000   0.039788659   -38.501839      0.059680673   -38.442159      0.014309056    0.026965107   -0.027254702    433.15096      13.68173       13.81951       0.0046731536   81897.934    
    676000   0.039909379   -38.501365      0.059861746   -38.441503     -0.0098527079  -0.014890804   -0.015365656    433.27743      13.653235      13.788818     -0.013369723    81569.66     
    678000   0.04028335    -38.501525      0.060422681   -38.441103      0.0056295815   0.022263518    0.033014321    433.34182      13.627978      13.756886      0.020302474    81242.288    
    680000   0.040285048   -38.501661      0.060425228   -38.441236     -0.047359618   -0.0025298785  -0.027479139    433.48907      13.601904      13.727206     -0.025789545    80939.409    
    682000   0.040125536   -38.50227       0.060185969   -38.442084      0.0050762559  -0.013774145    0.0018645874   433.73019      13.57163       13.692228     -0.0022777672   80598.278    
    684000   0.040068053   -38.502488      0.060099749   -38.442388      0.01737554     0.0057933154  -0.010047061    433.39173      13.545054      13.653881      0.0043739313   80152.573    
    686000   0.040000679   -38.501585      0.059998691   -38.441586     -0.020251798    0.012557432   -0.0091846308   432.99162      13.519701      13.629352     -0.0056263322   79785.1      
    688000   0.039708902   -38.501666      0.059561043   -38.442105     -0.017700441    0.0036263772  -0.049106135    433.01755      13.492993      13.59434      -0.021060066    79427.687    
    690000   0.039734948   -38.501883      0.05960011    -38.442283      0.044453277    0.030527451    0.028670966    432.93964      13.465562      13.563153      0.034550565    79070.14     
    692000   0.040032003   -38.501998      0.060045676   -38.441952      0.021772756    0.0083553611   0.017609736    432.95811      13.437993      13.533474      0.015912618    78738.938    
    694000   0.040075701   -38.502392      0.06011122    -38.442281     -0.042130494   -0.018638743   -0.025597897    432.93323      13.412944      13.501537     -0.028789045    78402.203    
    696000   0.039898807   -38.50191       0.05984589    -38.442064     -0.038032224   -0.03950708     0.020175405    432.74164      13.38528       13.469471     -0.019121299    78020.13     
    698000   0.039909546   -38.501987      0.059861997   -38.442125     -0.037014      -0.013969465   -0.019715488    432.63713      13.357889      13.431867     -0.023566318    77624.357    
    700000   0.039792522   -38.502541      0.059686468   -38.442855     -0.0038268498   0.0087001428  -0.01539927     432.39041      13.331562      13.392529     -0.0035086591   77200.424    
    702000   0.039904873   -38.503017      0.059854988   -38.443162     -0.027872896    0.0027934682  -0.003692312    432.64631      13.307408      13.355894     -0.0095905798   76895.238    
    704000   0.040172671   -38.503424      0.060256668   -38.443167     -0.021778466   -0.020851035   -0.0086676717   432.89931      13.278826      13.324341     -0.017099057    76593.569    
    706000   0.04003742    -38.502323      0.060053801   -38.442269      0.020537895   -0.044871014   -0.029994874    432.50957      13.255981      13.29496      -0.018109331    76224.509    
    708000   0.03986947    -38.501793      0.059801885   -38.441991     -0.0040644222   0.029390076   -0.016423978    432.37063      13.229129      13.262487      0.0029672252   75859.925    
    710000   0.04001757    -38.50262       0.060024027   -38.442596      0.0050312403   0.010232669   -0.0014922476   432.05834      13.203658      13.232792      0.004590554    75489.78     
    712000   0.039811325   -38.5027        0.059714672   -38.442985     -0.033573889    0.019283711   -0.00054659695  431.59671      13.17763       13.201441     -0.0049455919   75082.167    
    714000   0.040270091   -38.503319      0.060402794   -38.442917     -0.050825497    0.0067098128   0.0047194034   431.36876      13.153277      13.174191     -0.013132094    74749.21     
    716000   0.040197711   -38.502899      0.060294228   -38.442605     -0.032891336   -0.013770414    0.01764363     431.57321      13.127799      13.145596     -0.0096727068   74477.77     
    718000   0.040163757   -38.502919      0.060243299   -38.442676      0.048082362    0.037401108    0.020733824    431.74344      13.100239      13.118787      0.035405765    74199.102    
    720000   0.03982428    -38.502959      0.059734103   -38.443225      0.009630788   -0.020737324   -0.016002757    432.16072      13.073369      13.09477      -0.0090364309   73982.785    
    722000   0.040228366   -38.503409      0.060340208   -38.443069     -0.010358954   -0.017721028   -0.0011899168   432.34663      13.045886      13.074464     -0.009756633    73744.488    
    724000   0.039998086   -38.502802      0.059994802   -38.442808     -0.010189803    0.00049653715  0.0081124148   432.65432      13.021667      13.0513       -0.00052695033  73529.46     
    726000   0.040459089   -38.503486      0.06068628    -38.4428       -9.9169562e-05  0.012810201    0.030949755    432.6162       12.99558       13.02871       0.014553595    73248.69     
    728000   0.040243768   -38.503599      0.060363311   -38.443235     -0.022839565    0.0085433125  -0.010308907    432.46192      12.966747      13.005547     -0.0082017198   72930.222    
    730000   0.039890468   -38.503119      0.059833381   -38.443286     -0.0013871161  -0.024503376   -0.015202374    432.37369      12.938523      12.984692     -0.013697622    72639.966    
    732000   0.039618935   -38.502725      0.059426097   -38.443298      0.0037865206  -0.0030612212   0.0090083169   432.50931      12.911573      12.967148      0.0032445388   72413.42     
    734000   0.03998037    -38.503312      0.059968229   -38.443344     -0.033813833    0.01578326     0.0021755175   432.54524      12.884239      12.946249     -0.0052850186   72149.656    
    736000   0.039797626   -38.503359      0.059694123   -38.443665      0.036825318    0.0066199487   0.0037575392   432.51571      12.853904      12.922041      0.015734269    71840.286    
    738000   0.04000606    -38.502921      0.060006762   -38.442914      0.023292667   -0.015133856   -0.0065493992   432.50864      12.827971      12.899284      0.00053647039  71567.912    
    740000   0.040076341   -38.503436      0.06011218    -38.443324      0.057433182   -0.0016163542   0.016179745    432.41531      12.804333      12.879056      0.023998858    71308.623    
    742000   0.039707053   -38.503803      0.05955827    -38.444245     -0.017442713    0.0045491106  -0.016055148    432.54145      12.782452      12.859043     -0.0096495836   71096.885    
    744000   0.039946518   -38.504147      0.059917452   -38.44423       0.026788056   -0.025000924   -0.032821368    432.51761      12.753341      12.831824     -0.010344745    70780.909    
    746000   0.040044814   -38.504336      0.060064892   -38.444271     -0.012659522   -0.026681233   -0.033872422    432.59903      12.726956      12.808061     -0.024404392    70516.942    
    748000   0.040144312   -38.504371      0.060214132   -38.444157     -0.018931063    0.031824812    0.02470578     431.91105      12.702583      12.782133      0.012533176    70127.712    
    750000   0.040022474   -38.504015      0.060031382   -38.443984      0.0053749771   0.0067364685   0.037915661    431.69932      12.686419      12.759643      0.016675702    69880.975    
    752000   0.039900624   -38.504426      0.059848615   -38.444578     -0.025179754   -0.02314165     0.0014435864   431.52488      12.6637        12.729329     -0.015625939    69561.985    
    754000   0.039729041   -38.504146      0.05959125    -38.444555     -0.014182347   -0.014800232   -0.023824192    431.60438      12.641542      12.699673     -0.017602257    69291.257    
    756000   0.040565042   -38.504307      0.060845203   -38.443461      0.053822638    0.037589849    0.051104757    431.59464      12.62518       12.66722       0.047505748    69023.173    
    758000   0.040069401   -38.504935      0.06010177    -38.444833      0.059187077   -0.0096489731   0.017695707    432.00852      12.611242      12.640364      0.02241127     68866.78     
    760000   0.039923999   -38.505515      0.059883676   -38.445631     -0.057229007   -0.019721123    0.0036335748   432.40451      12.592358      12.611013     -0.024438852    68666.875    
    762000   0.040347538   -38.505881      0.06051896    -38.445362      0.0032611487   0.020281492    0.026381984    432.31981      12.569481      12.583156      0.016641542    68377.316    
    764000   0.03985272    -38.504806      0.059776761   -38.445029      0.0340105     -0.047038677   -0.0072516329   432.6003       12.550661      12.561204     -0.0067599368   68200.051    
    766000   0.040278591   -38.506197      0.060415544   -38.445782     -0.038632177   -0.0068149001  -0.010337366    432.88062      12.527232      12.527826     -0.018594814    67935.845    
    768000   0.039843912   -38.506036      0.05976355    -38.446273     -0.01726462    -0.024752365   -0.057608295    433.10784      12.507351      12.494122     -0.033208427    67681.052    
    770000   0.039759122   -38.506397      0.05963637    -38.446761      0.041513461    0.032628236    0.042357021    433.24431      12.48561       12.460709      0.038832906    67403.956    
    772000   0.040008164   -38.507294      0.060009919   -38.447284      0.0025822881  -0.031787781   -0.025564536    433.4012       12.471212      12.430887     -0.018256676    67189.419    
    774000   0.03977629    -38.506825      0.05966212    -38.447162     -0.001783391    0.007187228   -0.048631826    433.57928      12.45231       12.393115     -0.01440933     66911.216    
    776000   0.039995058   -38.507262      0.05999026    -38.447272     -0.020999457   -0.027794635   -0.022152943    433.4579       12.434749      12.357323     -0.023649012    66605.232    
    778000   0.040114179   -38.507914      0.060168934   -38.447745      0.0090718951   0.010950164    0.014854411    433.31523      12.416214      12.321049      0.01162549     66288.904    
    780000   0.039888344   -38.507035      0.059830195   -38.447205      0.031896251    0.023899675   -0.021261481    433.25217      12.39794       12.289228      0.011511482    66010.78     
    782000   0.039941358   -38.50791       0.059909713   -38.448        -0.04090715    -0.027201152    0.00095972678  433.17478      12.380522      12.252058     -0.022382858    65706.927    
    784000   0.039696515   -38.50799       0.059542462   -38.448447      0.018970242   -0.015767661    0.013108107    433.3065       12.361765      12.210964      0.0054368962   65407.212    
    786000   0.039774794   -38.507913      0.059659877   -38.448254      0.0010702206  -0.0014230143  -0.016565365    433.1789       12.343963      12.17496      -0.0056393863   65101.271    
    788000   0.040017583   -38.508014      0.060024046   -38.44799       0.042037302    0.016681311    0.0060087112   432.6624       12.326563      12.13696       0.021575775    64729.328    
    790000   0.039821855   -38.50805       0.059730465   -38.44832      -0.0099061102   0.044748088    0.008302058    432.44666      12.310968      12.106184      0.014381345    64451.349    
    792000   0.039948441   -38.508452      0.059920338   -38.448531      0.018212676    0.001323499    0.015059936    433.02039      12.297831      12.066812      0.011532037    64258.326    
    794000   0.039749689   -38.507883      0.05962222    -38.448261     -0.022564945    0.046217247    0.034230986    433.2552       12.28104       12.026748      0.019294429    63992.215    
    796000   0.040271763   -38.508598      0.060405302   -38.448192      0.01182423    -0.016812409   -0.041737688    433.25955      12.258846      11.991965     -0.015575289    63692.465    
    798000   0.039863347   -38.508624      0.059792701   -38.448831      0.071431086    0.029238562    0.00081179434  432.95049      12.244741      11.970732      0.033827147    63461.243    
    800000   0.040210888   -38.508916      0.060313993   -38.448602     -0.045894588   -0.011988518   -0.044218156    432.93283      12.232699      11.933344     -0.034033754    63198.242    
    802000   0.039865831   -38.510045      0.059796426   -38.450248      0.02632886     0.0017582987   0.0092326234   433.0526       12.221063      11.902458      0.012439927    62992.131    
    804000   0.04008906    -38.510011      0.060131258   -38.44988       0.037672781    0.0098810487   0.0083029866   433.08678      12.205382      11.877418      0.018618939    62783.908    
    806000   0.039773045   -38.510471      0.059657253   -38.450813      0.0039813618   0.028095767    0.024277706    432.82011      12.183695      11.846095      0.018784945    62468.582    
    808000   0.040361265   -38.51102       0.060539549   -38.45048      -0.01312336    -0.017564077   -0.015278668    432.75774      12.162741      11.813173     -0.015322035    62178.876    
    810000   0.040095429   -38.510849      0.060140811   -38.450709     -0.065541013   -0.002498926   -0.017259304    432.5836       12.142884      11.783722     -0.028433081    61897.682    
    812000   0.039935671   -38.510924      0.059901184   -38.451023      0.033791282    0.027581813    0.021551933    432.70371      12.120018      11.755421      0.027641676    61649.856    
    814000   0.039862059   -38.511128      0.059790769   -38.451338      0.027049534    0.01954787     0.0030892365   433.07956      12.100138      11.723858      0.016562213    61436.798    
    816000   0.040225569   -38.511759      0.060336013   -38.451423      0.061482615    0.024898571   -0.0050076665   433.06321      12.081882      11.690984      0.027124507    61169.786    
    818000   0.040293778   -38.511695      0.060438322   -38.451257      0.024605675    0.02083641     0.030561919    433.2022       12.067848      11.663028      0.025334668    60972.187    
    820000   0.040144459   -38.51186       0.060214352   -38.451645      0.040375142    0.01922876     0.0055590447   433.21234      12.050189      11.629479      0.021720982    60709.262    
    822000   0.040079123   -38.512093      0.060116353   -38.451977      0.063867106    0.010987614   -0.024022703    433.15802      12.032044      11.596612      0.016944006    60438.945    
    824000   0.040271946   -38.511937      0.060405576   -38.451531     -0.028584816   -0.01308978    -0.011275787    433.02923      12.013447      11.567142     -0.017650128    60174.281    
    826000   0.040225267   -38.511798      0.06033556    -38.451463     -0.079009844    0.0098334188  -0.0093664314   432.95562      11.998112      11.54095      -0.026180952    59951.198    
    828000   0.04019041    -38.512407      0.060283277   -38.452123      0.025945221   -0.012997638   -0.011095892    432.64354      11.978797      11.521492      0.00061723043  59710.699    
    830000   0.03966404    -38.512179      0.059493752   -38.452686     -0.0059929027  -0.0055294065  -0.0092037732   432.79414      11.960779      11.502458     -0.0069086941   59543.106    
    832000   0.039944319   -38.510959      0.059914155   -38.451045      0.026428756    0.014867428    0.00077939314  432.70363      11.942814      11.491655      0.014025192    59385.412    
    834000   0.039734026   -38.511839      0.059598727   -38.45224      -0.0049938198   0.012451301   -0.04756356     432.70405      11.921692      11.484346     -0.013368693    59242.735    
    836000   0.039861421   -38.51124       0.059789813   -38.45145       0.054818528    0.033846958    0.032707126    432.63686      11.900449      11.477264      0.040457537    59091.53     
    838000   0.039877739   -38.511844      0.059814289   -38.452029      0.023592202   -0.0083285012   0.010868684    432.69449      11.875511      11.475506      0.0087107948   58966.521    
    840000   0.039768267   -38.511519      0.059650087   -38.451869     -0.019265376   -0.02178642    -0.020676523    432.98053      11.857022      11.47553      -0.020576106    58913.763    
    842000   0.039998064   -38.512074      0.05999477    -38.452079      0.025838307    0.052972667    0.013193052    432.76247      11.836655      11.461518      0.030668009    58711.171    
    844000   0.040253433   -38.512203      0.060377808   -38.451825     -0.0028775637   0.041164358    0.027907851    433.17067      11.813295      11.445795      0.022064882    58570.113    
    846000   0.03967811    -38.511453      0.059514856   -38.451938      0.020205587   -0.011264288   -0.031240844    433.21525      11.790303      11.430733     -0.0074331818   58385.2      
    848000   0.040213517   -38.512274      0.060317937   -38.451956      0.012155445    0.011260923    0.024883844    432.83381      11.772162      11.415679      0.016100071    58167.332    
    850000   0.040328537   -38.511844      0.06049046    -38.451354      0.012862471    0.029029539    0.033176606    432.5938       11.761525      11.398634      0.025022872    57995.825    
    852000   0.039894215   -38.511935      0.059839002   -38.452096      0.0051241261  -0.014980567    0.014727356    432.70509      11.748496      11.39062       0.0016236384   57905.744    
    854000   0.040714852   -38.512494      0.061069909   -38.451424     -0.02914443    -0.018581176   -0.0080370726   432.26351      11.727517      11.384905     -0.018587559    57714.387    
    856000   0.039957155   -38.512347      0.059933408   -38.452414      0.029077599    0.015818057   -0.0086087103   432.17543      11.704888      11.372894      0.012095648    57530.523    
    858000   0.039966878   -38.51225       0.059947991   -38.452302      0.013559781    0.012831108    0.001684673    431.92874      11.68571       11.365694      0.0093585207   57367.135    
    860000   0.040036063   -38.512319      0.060051765   -38.452267     -0.047266669    0.015604719    0.021393708    432.03101      11.670641      11.36279      -0.0034227473   57292.081    
    862000   0.039876095   -38.512152      0.059811822   -38.45234       0.027128488   -0.010985762    0.012637234    432.32828      11.659308      11.361398      0.0095933198   57268.816    
    864000   0.040154268   -38.512627      0.060229065   -38.452398     -0.017801264    0.021500987    0.018575622    432.41196      11.639882      11.36008       0.0074251149   57177.829    
    866000   0.039899615   -38.512827      0.059847101   -38.45298       0.017876897    0.0097888236   0.020235843    432.58623      11.609429      11.356721      0.015967188    57034.349    
    868000   0.039841065   -38.512335      0.05975928    -38.452576      0.052818616    0.008092021    0.025780898    432.84343      11.584598      11.353449      0.028897178    56929.797    
    870000   0.039949404   -38.511984      0.059921782   -38.452062      0.0022111955  -0.027141946   -0.018017303    433.31799      11.560584      11.346342     -0.014316018    56838.466    
    872000   0.039937754   -38.513309      0.059904308   -38.453405      0.041978981   -0.013649325   -0.0021590037   433.47018      11.534131      11.33571       0.0087235505   56675.169    
    874000   0.040019982   -38.512942      0.060027644   -38.452915     -0.04380639    -0.0071009558  -0.0043758116   433.32085      11.506321      11.329476     -0.018427719    56487.959    
    876000   0.039976969   -38.512593      0.059963127   -38.45263      -0.042609527    0.019724044    0.032464143    433.53629      11.479045      11.322937      0.0031928868   56349.531    
    878000   0.039875323   -38.513423      0.059810664   -38.453613      0.074572197   -0.0050204959   0.048190641    433.51184      11.446146      11.314961      0.039247447    56145.289    
    880000   0.039954775   -38.513311      0.059929837   -38.453381     -0.077445135   -0.01719232    -0.037989217    433.92686      11.412432      11.312431     -0.044208891    56020.975    
    882000   0.040232039   -38.513002      0.060345718   -38.452656      0.040091183   -0.024564636   -0.021888023    433.95227      11.385434      11.31191      -0.0021204918   55889.152    
    884000   0.039925841   -38.514131      0.059886438   -38.454245      0.021872225    0.0025954329   0.01389185     433.82111      11.36372       11.316174      0.012786503    55786.721    
    886000   0.039816032   -38.514673      0.059721731   -38.454951     -0.0072854357   0.010486414    0.012895498    433.72887      11.342283      11.323296      0.0053654923   55704.679    
    888000   0.040048654   -38.513964      0.06007065    -38.453894      0.0047084234   0.0024185613  -0.019717253    433.66004      11.31853       11.322556     -0.0041967562   55575.566    
    890000   0.040005461   -38.513402      0.060005864   -38.453396     -0.04019722     0.014833141    0.0095455268   433.58495      11.291199      11.319449     -0.0052728508   55416.56     
    892000   0.039994444   -38.514414      0.059989338   -38.454424      0.014864448    0.012138799   -0.047153446    433.30521      11.273561      11.323267     -0.0067167331   55312.945    
    894000   0.040103031   -38.513862      0.060152213   -38.453709     -0.069778541    0.011031554   -0.013640356    433.29868      11.262627      11.325681     -0.024129114    55270.248    
    896000   0.040122924   -38.514385      0.060182051   -38.454203     -0.018334943   -0.024814683   -0.00056261738  433.0734       11.252957      11.318888     -0.014570748    55160.977    
    898000   0.039910105   -38.513927      0.059862836   -38.454064      0.021513736   -0.034964679    0.0031584133   432.99456      11.242963      11.31302      -0.0034308432   55073.389    
    900000   0.040004644   -38.514263      0.060004638   -38.454258      0.024666142   -0.019010632    0.0044896139   433.24264      11.224535      11.311384      0.0033817079   55006.664    
    902000   0.040067781   -38.514142      0.06009934    -38.454042      0.0081884732  -0.020712603    0.0025409925   433.1046       11.211034      11.307266     -0.0033277125   54903.001    
    904000   0.040121542   -38.514537      0.060179978   -38.454357      0.00066865012  0.022327284    0.037189331    433.1459       11.204603      11.295283      0.020061755    54818.582    
    906000   0.03970793    -38.514128      0.059559584   -38.454568     -0.031494096   -0.017145621   -0.020593911    433.35559      11.209929      11.269001     -0.023077876    54743.519    
    908000   0.04009088    -38.514547      0.060133988   -38.454413      0.028096378   -0.01575026     0.020784245    433.25515      11.215887      11.245117      0.011043454    54643.853    
    910000   0.040039969   -38.513925      0.060057624   -38.453867      0.038151697    0.03474952     0.039216129    433.27201      11.216816      11.220258      0.037372449    54529.697    
    912000   0.039959708   -38.514717      0.059937236   -38.45478      -0.047536718    0.001803847    0.013240239    433.17629      11.21731       11.195044     -0.010830877    54397.529    
    914000   0.040068274   -38.514739      0.06010008    -38.454639     -0.015440332    0.0087838523   0.034191561    433.15367      11.216772      11.176339      0.0091783603   54301.201    
    916000   0.040347942   -38.514459      0.060519566   -38.453939      0.036034261    0.050663901    0.039089678    433.37687      11.215654      11.163375      0.04192928     54260.757    
    918000   0.040034976   -38.514587      0.060050134   -38.454537     -0.071384767    0.016403517   -0.0013750868   433.20794      11.217277      11.144787     -0.018785446    54157.132    
    920000   0.039989259   -38.51467       0.059981562   -38.454689      0.023124839    0.025917805    0.0052736189   432.84904      11.216694      11.113941      0.018105421    53959.687    
    922000   0.040118199   -38.51408       0.060174964   -38.453905     -0.022128842   -0.064044868   -0.037872597    432.56194      11.220667      11.091737     -0.041348769    53835.223    
    924000   0.04020469    -38.51492       0.060304696   -38.454615      0.0094749206  -0.030941847    0.043405258    432.44172      11.224289      11.065951      0.0073127771   53712.478    
    926000   0.040236066   -38.515302      0.060351758   -38.454951      0.012646526   -0.017964227   -0.014439524    432.65202      11.227912      11.046118     -0.0065857417   53659.601    
    928000   0.040354077   -38.514814      0.060528768   -38.454286     -0.0062593913  -0.0055536735   0.0046839393   432.71094      11.231676      11.02483      -0.0023763752   53581.435    
    930000   0.040039078   -38.515183      0.060056287   -38.455127      0.039394078   -0.0066836266   0.0075474921   432.27798      11.23287       11.002285      0.013419315    53424.042    
    932000   0.039852163   -38.515258      0.059775926   -38.455482      0.020400549    0.00549495    -0.0065549333   432.01104      11.236017      10.976719      0.0064468554   53281.909    
    934000   0.040240537   -38.515481      0.060358464   -38.455122      0.021368343    0.0089449385   0.021975098    431.85249      11.241634      10.959307      0.01742946     53204.45     
    936000   0.039836513   -38.514925      0.059752452   -38.455173     -0.031843355   -0.044574841    0.011491847    431.91678      11.239964      10.937973     -0.021642116    53100.896    
    938000   0.039910535   -38.51486       0.059863481   -38.454996     -0.051583455    0.025897573    0.031198608    431.58302      11.224565      10.91428       0.0018375754   52872.392    
    940000   0.039561861   -38.515344      0.059340489   -38.456003     -0.013695393    0.011050118    0.021776052    431.26696      11.220982      10.89821       0.0063769256   52739.039    
    942000   0.039356227   -38.515026      0.059032051   -38.455994      0.024916137   -0.03969659    -0.0068083281   431.66274      11.227925      10.870608     -0.0071962606   52686.327    
    944000   0.039981938   -38.514927      0.059970581   -38.454956     -0.04861684    -0.062661645   -0.033592812    431.99567      11.230066      10.844751     -0.048290432    52611.571    
    946000   0.039830209   -38.515898      0.059742996   -38.456155      0.036361277   -0.014471445    0.0033230716   432.08313      11.226713      10.82433       0.0084043012   52507.454    
    948000   0.040210994   -38.51662       0.060314152   -38.456306      0.10083136     0.051041996   -0.0024496094   431.92255      11.226549      10.802881      0.049807917    52383.166    
    950000   0.039863064   -38.515976      0.059792277   -38.456184     -0.035413701   -0.016218765    0.016341981    432.1648       11.23488       10.798947     -0.011763495    52432.339    
    952000   0.040207482   -38.515967      0.060308883   -38.455658      0.044553701    0.043791637    0.015619467    432.53941      11.237409      10.802419      0.034654935    52506.48     
    954000   0.039964553   -38.515356      0.059944504   -38.455411     -0.032488652    0.0048400414  -0.006383985    432.39135      11.240935      10.805413     -0.011344199    52519.529    
    956000   0.04010491    -38.516072      0.060155032   -38.455917     -0.016311169    0.032830793    0.026591183    432.72856      11.23724       10.794841      0.014370269    52491.797    
    958000   0.039805772   -38.51544       0.059706342   -38.455734     -0.0076595698  -0.021453154    0.043013472    432.90025      11.223374      10.791572      0.0046335827   52431.945    
    960000   0.03960174    -38.515716      0.059400306   -38.456316      0.0056193371  -0.021341289    0.037599041    432.85968      11.206602      10.802381      0.0072923632   52401.117    
    962000   0.039817392   -38.516304      0.059723771   -38.45658      -0.036604605    0.038165206   -0.018882109    433.16987      11.195783      10.811551     -0.0057738359   52432.522    
    964000   0.040031946   -38.516331      0.060045589   -38.456286      0.020951331   -0.041316857   -0.013211182    433.17028      11.193358      10.804523     -0.011192236    52387.133    
    966000   0.040054551   -38.516713      0.060079496   -38.456634      0.047083247    0.042555323    0.047403205    432.95576      11.196793      10.796703      0.045680592    52339.35     
    968000   0.039788988   -38.516217      0.059681167   -38.456536      0.003285683    0.012591616    0.022083962    432.75214      11.198748      10.808187      0.012653754    52379.52     
    970000   0.040294919   -38.516793      0.060440034   -38.456353     -0.036294186    0.033580441    0.020919051    432.52531      11.199947      10.817242      0.0060684353   52401.536    
    972000   0.039972805   -38.517608      0.059956882   -38.457651      0.022394293    0.00027070773 -0.020746479    432.51759      11.183801      10.819287      0.00063950727  52334.954    
    974000   0.040004506   -38.518362      0.060004432   -38.458358     -0.0026418251   0.013467221   -0.0040762156   432.79041      11.162165      10.810426      0.0022497266   52223.849    
    976000   0.039438362   -38.518335      0.059155249   -38.45918      -0.052441448    0.026656674   -0.026069602    433.04276      11.148462      10.80154      -0.017284792    52147.248    
    978000   0.040225976   -38.518425      0.060336623   -38.458088      0.0085512564   0.034909802    0.034832921    432.96894      11.137378      10.798447      0.026097993    52071.61     
    980000   0.040139894   -38.518965      0.060207505   -38.458758      0.012402148    0.014722482   -0.020335631    432.94305      11.102583      10.796429      0.0022629998   51896.126    
    982000   0.040236041   -38.518517      0.060351721   -38.458165     -0.045027791   -0.020941177   -0.0083209864   433.07489      11.070294      10.792473     -0.024763318    51741.993    
    984000   0.04004887    -38.518433      0.060070975   -38.458362     -0.075237233   -0.012701629   -0.056184552    433.24135      11.041088      10.793173     -0.048041138    51628.667    
    986000   0.039793871   -38.518833      0.059688491   -38.459145      0.036922747    0.00057436121 -0.021729104    433.28586      11.017209      10.793346      0.0052560013   51523.122    
    988000   0.039947951   -38.519355      0.059919602   -38.459435      0.029861425    0.026699428    0.02756277     433.06192      10.995418      10.788958      0.028041208    51373.743    
    990000   0.040020513   -38.519991      0.060028441   -38.459963     -0.043081025    0.0034165557   0.030706442    433.36883      10.981688      10.786477     -0.0029860093   51334.155    
    992000   0.03984638    -38.51944       0.059767252   -38.459673      0.065081521    0.036617437   -0.0029832073   433.36913      10.965147      10.787207      0.03290525     51260.331    
    994000   0.039629171   -38.520194      0.059441451   -38.460752     -0.027922729   -0.030417184    0.0073541706   433.38517      10.953083      10.784354     -0.016995248    51192.287    
    996000   0.04007533    -38.519737      0.060110663   -38.459626     -0.0017986973  -0.018903411   -0.013576094    433.06686      10.940953      10.783326     -0.011426067    51093.169    
    998000   0.040306903   -38.520158      0.06045801    -38.4597        0.08202275    -0.0072626044   0.0060345038   432.90815      10.928413      10.770631      0.02693155     50955.843    
   1000000   0.040070047   -38.519543      0.060102738   -38.459441     -0.02300901     0.01494151    -0.021471291    433.09048      10.916198      10.759426     -0.0098462636   50867.351    
   1002000   0.03979503    -38.520383      0.059690229   -38.460693      0.034249077    0.00013015552  0.032256808    433.42762      10.898004      10.770694      0.022212013    50875.329    
   1004000   0.040040739   -38.519284      0.060058779   -38.459225     -0.062236295    0.081889041   -0.040983819    433.63057      10.893268      10.784499     -0.0071103577   50942.243    
   1006000   0.039878591   -38.520118      0.059815566   -38.460302      0.03612554     0.0017884013  -0.04221941     434.01769      10.907194      10.772915     -0.0014351561   50998.067    
   1008000   0.039936946   -38.519422      0.059903095   -38.459519      0.0061478356  -0.028866305   -0.014894939    433.97922      10.940323      10.773107     -0.012537803    51149.342    
   1010000   0.040106622   -38.52005       0.060157599   -38.459892     -0.020793851   -0.0070340004   0.030066435    433.71531      10.956381      10.767249      0.00074619427  51165.432    
   1012000   0.039833772   -38.5197        0.05974834    -38.459951     -0.017453305    0.027895461    0.034368189    433.78349      10.955215      10.757937      0.014936782    51123.774    
   1014000   0.039784285   -38.520008      0.059674113   -38.460334     -0.050684963    0.030782093    0.0012369588   433.49872      10.941757      10.761981     -0.0062219705   51046.634    
   1016000   0.039839893   -38.520932      0.059757521   -38.461174     -0.00017179075 -0.036323284   -0.032096355    433.53505      10.931246      10.769552     -0.02286381     51037.75     
   1018000   0.040036934   -38.52019       0.060053071   -38.460137      0.0097974953   0.0040163303   0.030374932    433.65672      10.925432      10.76677       0.014729586    51011.74     
   1020000   0.039596641   -38.519594      0.059392658   -38.460201      0.00075745976  0.0026969715  -0.0032640562   433.79159      10.925416      10.76614       6.3458349e-05  51024.543    
   1022000   0.039644495   -38.520703      0.059464436   -38.461239      0.031631795    0.0076388442   0.011969421    433.82148      10.924602      10.759707      0.01708002     50993.768    
   1024000   0.039850852   -38.521016      0.059773959   -38.461242      0.0016611412   0.0092272571  -0.037547691    433.75483      10.921075      10.760398     -0.0088864309   50972.747    
   1026000   0.04017709    -38.520378      0.060263298   -38.460114     -0.062678429   -0.0088215876  -0.044699804    433.71369      10.913519      10.766293     -0.038733274    50960.557    
   1028000   0.040029742   -38.5207        0.060042283   -38.460657     -0.055849748   -0.022639894   -0.074911882    433.4318       10.901184      10.768139     -0.051133841    50878.593    
   1030000   0.0402929     -38.520528      0.060437005   -38.460091      0.034964982    0.061846041    0.034284244    433.39791      10.89032       10.759158      0.043698423    50781.525    
   1032000   0.039903566   -38.519439      0.059853027   -38.459586      0.021735411    0.0016172206   0.0030961546   433.3033       10.890701      10.764087      0.0088162622   50795.471    
   1034000   0.040283927   -38.520311      0.060423547   -38.459887     -0.0015336638   0.016797976   -0.064837195    432.82546      10.899023      10.756866     -0.016524294    50744.17     
   1036000   0.040315885   -38.520262      0.060471482   -38.45979       0.027973423   -0.013802199   -0.015280532    432.65044      10.920616      10.755936     -0.00036976911  50819.747    
   1038000   0.03978334    -38.520241      0.059672696   -38.460568      0.006114267   -0.030946121    0.0023049452   432.78174      10.926006      10.741619     -0.0075089695   50792.561    
   1040000   0.039826034   -38.520041      0.059736733   -38.460304      0.034947513    0.039537515    0.053541457    433.06037      10.912026      10.741274      0.042675495    50758.598    
   1042000   0.040109515   -38.5211        0.060161939   -38.460938      0.033847438    0.029943572    0.0025094426   433.3055       10.897328      10.754794      0.022100151    50782.762    
   1044000   0.039791227   -38.520052      0.059684525   -38.460367     -0.0057676428   0.019331545    0.014498738    433.41995      10.886195      10.754501      0.0093542133   50742.899    
   1046000   0.040280873   -38.520685      0.060418966   -38.460266     -0.054226472   -0.050753127   -0.033093439    433.42237      10.875548      10.742281     -0.046024346    50635.95     
   1048000   0.04010618    -38.520877      0.060156936   -38.46072      -0.14709778    -0.014312845   -0.0081145456   433.1108       10.86302       10.755567     -0.056508391    50603.77     
   1050000   0.04011511    -38.520306      0.06017033    -38.460136      0.04059751    -0.016502307    0.0046637584   433.09859      10.863755      10.765915      0.0095863208   50654.459    
   1052000   0.039967306   -38.520115      0.059948633   -38.460167     -0.085805597   -0.023960843   -0.02259776     432.90381      10.877869      10.738518     -0.0441214      50568.444    
   1054000   0.039984159   -38.520321      0.059973911   -38.460347      0.022690314    0.019391159    0.024477766    432.71627      10.889731      10.746934      0.022186413    50641.312    
   1056000   0.039373722   -38.520514      0.059058293   -38.461455     -0.036500475    0.021158173   -0.0092788739   432.42841      10.887433      10.755179     -0.0082070588   50635.762    
   1058000   0.040391811   -38.521041      0.060585367   -38.460456      0.039184431    0.00051820832 -0.050629496    432.76447      10.87973       10.743528     -0.0036422853   50584.405    
   1060000   0.040174196   -38.520231      0.060258956   -38.459972      0.080748816    0.011379563    0.021799249    432.81475      10.872272      10.753147      0.037975876    50600.863    
   1062000   0.040191428   -38.520384      0.060284804   -38.460099      0.028695396    0.0051348417  -0.011537995    432.6716       10.865355      10.759164      0.0074307475   50580.233    
   1064000   0.03963054    -38.520524      0.059443504   -38.461081      0.03760975    -0.0011367788  -0.026932527    432.60101      10.866976      10.75358       0.0031801483   50553.28     
   1066000   0.039999702   -38.520484      0.059997226   -38.460487     -0.062686245    0.047894181    0.029760456    432.34009      10.873301      10.743346      0.004989464    50504.079    
   1068000   0.0398222     -38.520603      0.059730983   -38.460872     -0.022968154   -0.018350669   -0.0077966021   432.10331      10.884382      10.75548      -0.016371808    50584.932    
   1070000   0.04003038    -38.52057       0.060043241   -38.460527      0.090419477    0.027213384    0.018038309    432.07156      10.884678      10.747484      0.045223723    50544.986    
   1072000   0.039690626   -38.520444      0.05953363    -38.460911      0.0039000095  -0.021787365   -0.025903389    431.59667      10.885596      10.752116     -0.014596915    50515.453    
   1074000   0.04040315    -38.521354      0.060602374   -38.460752     -0.02236101     0.03724632     0.062946419    431.80595      10.891091      10.744353      0.025943909    50528.952    
   1076000   0.039925257   -38.521401      0.059885562   -38.461515      0.025127088    0.038187215    0.01621554     431.8932       10.899865      10.739994      0.026509948    50559.356    
   1078000   0.039840862   -38.521166      0.059758975   -38.461407     -0.023596485    0.058887816   -0.031677289    432.01857      10.892993      10.754547      0.0012046805   50610.632    
   1080000   0.039886147   -38.521355      0.059826899   -38.461528      0.04882519     0.004053743    0.0046886377   431.96704      10.868325      10.756389      0.01918919     50498.645    
   1082000   0.039828713   -38.520742      0.059740752   -38.461002     -0.044524922   -0.054357155   -0.032307486    431.82795      10.855521      10.743883     -0.043729854    50364.285    
   1084000   0.040037532   -38.520964      0.060053969   -38.46091      -0.0021643192  -0.026281622   -0.0023847622   431.70378      10.864739      10.743654     -0.010276901    50391.483    
   1086000   0.040057862   -38.521149      0.060084462   -38.461064     -0.0094309259   0.027463016   -0.023154618    431.64594      10.872084      10.756061     -0.0017075093   50477.02     
   1088000   0.039814727   -38.52109       0.059719774   -38.46137       0.046616504   -0.062926693   -0.011859626    431.22227      10.871111      10.764018     -0.0093899383   50460.264    
   1090000   0.039825485   -38.52101       0.05973591    -38.461275     -0.066745542   -0.046548345    0.026440557    431.10757      10.866904      10.760925     -0.02895111     50412.831    
   1092000   0.040017688   -38.520958      0.060024203   -38.460934      0.047242545    0.023213379    0.022392535    431.55498      10.855505      10.745054      0.030949486    50337.865    
   1094000   0.039892255   -38.521029      0.059836061   -38.461193     -0.023852277    0.00095559206  0.025754283    431.5718       10.840621      10.746125      0.00095253266  50275.816    
   1096000   0.040157327   -38.521389      0.060233655   -38.461155     -0.0070762306  -0.014212356   -0.026769406    431.73329      10.838232      10.750317     -0.016019331    50303.159    
   1098000   0.039819929   -38.520536      0.059727577   -38.460808     -0.08054365    -0.008719065   -0.048395064    431.96996      10.848106      10.754513     -0.045885926    50396.248    
   1100000   0.039881234   -38.521         0.05981953    -38.461181      0.0055543215  -0.021149144   -0.024149954    431.77103      10.856268      10.74785      -0.013248259    50379.708    
   1102000   0.040234376   -38.521229      0.060349223   -38.46088       0.010497596   -0.058402202   -0.0061927565   431.43226      10.860996      10.740939     -0.018032454    50329.719    
   1104000   0.03948967    -38.521311      0.059232207   -38.462078      0.072726083    0.0068740577  -3.2368555e-05  431.35583      10.86635       10.746816      0.026522591    50373.154    
   1106000   0.039910314   -38.520763      0.059863149   -38.4609       -0.00087925089 -0.023052842    0.019507912    431.22687      10.867249      10.754031     -0.0014747267   50396.074    
   1108000   0.040407585   -38.521157      0.060609026   -38.460548     -0.018428816   -0.0019296602  -0.0024822959   431.04707      10.86          10.749988     -0.0076135906   50322.535    
   1110000   0.04031368    -38.521492      0.060468174   -38.461023     -0.049940158    0.0032962988  -0.022958001    431.18353      10.84348       10.744558     -0.02320062     50236.502    
   1112000   0.039962004   -38.521342      0.05994068    -38.461401      0.022045329    0.0010828112  -0.0051367502   431.53643      10.820934      10.742972      0.0059971302   50165.675    
   1114000   0.039615805   -38.520739      0.059421403   -38.461318     -0.022282072   -0.028439161   -0.012365613    431.73266      10.81259       10.748849     -0.021028949    50177.219    
   1116000   0.040038493   -38.52099       0.06005541    -38.460935      0.021594142   -0.019834571   -0.0016022597   431.6636       10.816418      10.752927      5.2436956e-05  50205.993    
   1118000   0.040208066   -38.521861      0.06030976    -38.461552     -0.043266062    0.015841453    0.015905338    431.77013      10.823952      10.749901     -0.0038397567   50239.223    
   1120000   0.039731875   -38.521026      0.059595501   -38.461431      0.0097350273  -0.0099798067   0.025613225    431.76194      10.841502      10.74556       0.0084561485   50299.406    
   1122000   0.040248223   -38.521181      0.060369993   -38.460811      0.029908406   -0.018885033    0.010751224    431.50296      10.85132       10.742468      0.0072581991   50300.286    
   1124000   0.040035259   -38.521044      0.06005056    -38.460993     -0.0048891117  -0.027174473    0.0098540099   431.21855      10.853913      10.748556     -0.0074031916   50307.633    
   1126000   0.039854146   -38.521026      0.0597789     -38.461247      0.085996926    0.038212229    0.040886037    431.0048       10.854464      10.755718      0.055031731    50318.755    
   1128000   0.039780714   -38.520561      0.059668757   -38.460892     -0.03731885     0.040594682    0.012038753    431.02616      10.849037      10.748541      0.0051048618   50262.532    
   1130000   0.040129103   -38.520895      0.06019132    -38.460703     -0.10222954    -0.039935069    0.01679703     431.18331      10.842764      10.745623     -0.041789191    50238.143    
   1132000   0.039867936   -38.520894      0.059799585   -38.461094      0.0053570297  -0.0037589219   0.0048928909   431.51276      10.82865       10.751722      0.0021636662   50239.577    
   1134000   0.039704902   -38.521325      0.059555043   -38.46177       0.037889601    0.0097899931  -0.020696035    431.34055      10.809887      10.759165      0.0089945196   50167.219    
   1136000   0.040144318   -38.521452      0.060214142   -38.461238      0.04412857     0.042887724    0.015290835    431.31089      10.801809      10.750978      0.034102377    50088.137    
   1138000   0.03997574    -38.52098       0.059961285   -38.461019     -0.038474467   -0.029020979   -0.044410269    431.37935      10.808571      10.742124     -0.037301905    50086.166    
   1140000   0.039954156   -38.521006      0.05992891    -38.461077     -0.045103297   -0.0095621094  -0.040165281    431.54699      10.8215        10.753167     -0.031610229    50217.138    
   1142000   0.039825621   -38.521698      0.059736114   -38.461962      0.041592642   -0.012951822    0.055901057    431.46775      10.83732       10.744665      0.028180625    50241.561    
   1144000   0.039734351   -38.52098       0.059599214   -38.461381     -0.021359946   -0.02250641     0.011263394    431.40467      10.844021      10.753787     -0.010867654    50307.946    
   1146000   0.039871734   -38.520927      0.059805282   -38.461122     -0.030970933   -0.043095203    0.0065347132   431.50236      10.843307      10.750526     -0.022510474    50300.769    
   1148000   0.03981081    -38.521408      0.059713899   -38.461694     -0.0076832867   0.038283028   -0.010739918    431.78969      10.831927      10.746978      0.006619941    50264.844    
   1150000   0.039730624   -38.520785      0.059593624   -38.461191     -0.013581517    0.016056762   -0.017375889    431.54007      10.815207      10.747309     -0.0049668813   50159.785    
   1152000   0.039303376   -38.521239      0.058952778   -38.462286      0.011430521    0.0037655213   0.045459493    431.59458      10.798981      10.757757      0.020218512    50139.557    
   1154000   0.040217055   -38.52102       0.060323243   -38.460697      0.019255242   -0.017854603    0.02612327     431.32532      10.795531      10.750419      0.0091746364   50058.096    
   1156000   0.039881388   -38.521029      0.059819761   -38.461209     -0.062814207   -0.039595987   -0.0083132014   431.2735       10.813         10.745372     -0.036907798    50109.542    
   1158000   0.040128239   -38.521251      0.060190024   -38.461061      0.038252685    0.0036359684   0.024701669    430.98181      10.83403       10.749738      0.022196774    50193.43     
   1160000   0.03970158    -38.521868      0.05955006    -38.462318     -0.037739926    0.031064909   -0.019187105    431.00508      10.839995      10.746996     -0.0086207073   50210.965    
   1162000   0.039762642   -38.522051      0.059641649   -38.462409     -0.018531788    0.0049259268   0.024973284    431.30969      10.83899       10.74366       0.0037891408   50226.194    
   1164000   0.039644964   -38.520546      0.059465139   -38.461081     -0.0069081784   0.023159107   -0.029887695    431.17336      10.82793       10.746665     -0.0045455889   50173.115    
   1166000   0.040330278   -38.521343      0.06049307    -38.46085       0.041345909    0.013308398   -0.027473073    431.4155       10.803003      10.748625      0.0090604113   50094.861    
   1168000   0.039820533   -38.521206      0.059728482   -38.461478     -0.0024840704  -0.010311822    0.0032813331   431.16654      10.782936      10.749243     -0.0031715197   49975.823    
   1170000   0.040192453   -38.521456      0.060286341   -38.46117       0.064049485    0.022867891   -0.010036835    431.16201      10.78267       10.751214      0.025626847    49983.229    
   1172000   0.039546527   -38.521372      0.059317489   -38.462055      0.030790925    0.020538446   -0.0023041956   430.89473      10.794647      10.749812      0.016341725    50001.205    
   1174000   0.040112336   -38.521316      0.06016617    -38.46115       0.073590368   -0.017256958    0.00083677668  430.74821      10.812402      10.74492       0.019056729    50043.638    
   1176000   0.039953509   -38.521348      0.059927939   -38.461421     -0.012985743    0.033409581    0.014546       430.83343      10.832212      10.743024      0.011656612    50136.395    
   1178000   0.039711545   -38.52103       0.059565007   -38.461465      0.038007809    0.029586236    0.061418703    430.98201      10.838902      10.742265      0.043004249    50181.115    
   1180000   0.040332368   -38.521303      0.060496205   -38.460807     -0.076117141    0.016257277    0.018461505    431.05597      10.82793       10.744946     -0.013799453    50151.434    
   1182000   0.039863325   -38.52126       0.059792668   -38.461467     -0.097390826   -0.018693842   -0.08558649     431.1779       10.806309      10.745689     -0.067223719    50068.911    
   1184000   0.039906999   -38.521289      0.059858177   -38.461431     -0.01667884     0.036529862   -0.0016702129   431.10906      10.789885      10.748107      0.0060602698   49996.079    
   1186000   0.039857795   -38.521626      0.059784373   -38.461841      0.044944489    0.095850482    0.057608371    431.51778      10.790643      10.744791      0.066134447    50031.553    
   1188000   0.039911711   -38.521386      0.059865244   -38.461521     -0.0019537842  -0.0092959619   0.028981311    431.08821      10.808242      10.742037      0.0059105216   50050.431    
   1190000   0.039800359   -38.52186       0.059698222   -38.462161      0.020495238    0.036048456    0.00059604324  431.11396      10.823811      10.750154      0.019046579    50163.402    
   1192000   0.040085028   -38.520858      0.060125209   -38.460733     -0.0053375898  -0.016951943   -0.0082740741   431.18503      10.826518      10.742116     -0.010187869    50146.694    
   1194000   0.039787179   -38.521795      0.059678454   -38.462116     -0.0056247717   0.024795599   -0.019135809    431.01395      10.825762      10.747202      1.1672807e-05  50147.031    
   1196000   0.039699816   -38.520925      0.059547415   -38.461377     -0.053060724    0.017344201    0.0015498636   431.06384      10.820722      10.750048     -0.011388887    50142.76     
   1198000   0.040077849   -38.521753      0.060114442   -38.461639     -0.0052623967  -0.024933712   -0.064324765    431.09139      10.804508      10.750101     -0.031506958    50071.074    
   1200000   0.039831394   -38.521533      0.059744774   -38.461789      0.026946831   -0.060320121    0.011079893    431.12267      10.786759      10.744577     -0.0074311323   49966.758    
   1202000   0.040202987   -38.521342      0.060302141   -38.46104      -0.041492674    0.021857802    0.0014563518   430.73731      10.782082      10.75049      -0.0060595069   49927.907    
   1204000   0.039709228   -38.521342      0.059561531   -38.461781     -0.0093793584   0.007733546   -0.017813293    431.07155      10.785907      10.746345     -0.0064863684   49965.108    
   1206000   0.039931841   -38.521787      0.059895437   -38.461891     -0.076970304    0.0029586564   0.027305836    430.85166      10.79593       10.74542      -0.015568604    49981.724    
   1208000   0.040001916   -38.521089      0.060000547   -38.461088      0.0025838415   0.03163443     0.013938682    430.85882      10.805781      10.753885      0.016052318    50067.572    
   1210000   0.040149825   -38.520795      0.060222402   -38.460573     -0.1299993     -0.018711245   -0.039466567    431.05481      10.811403      10.746296     -0.062725705    50081.041    
   1212000   0.040252857   -38.521451      0.060376944   -38.461074     -0.059788527    0.062207699   -0.0059667964   430.76683      10.807497      10.742117     -0.0011825415   50010.045    
   1214000   0.039431483   -38.52133       0.059144931   -38.462185      0.022233915   -0.0065052986   0.013172353    430.59048      10.795789      10.753049      0.0096336567   49986.238    
   1216000   0.040181322   -38.521745      0.060269645   -38.461476     -0.012460913   -0.023612194    0.0027975085   430.58899      10.783557      10.747176     -0.011091866    49902.159    
   1218000   0.039960699   -38.521671      0.059938723   -38.461733      0.014589532   -0.013747233   -0.0065997758   430.77868      10.780611      10.749329     -0.001919159    49920.5      
   1220000   0.040239766   -38.521286      0.060357308   -38.460929     -0.050487935   -0.030788077   -0.020368967    431.16322      10.779742      10.742285     -0.03388166     49928.298    
   1222000   0.040213166   -38.521269      0.06031741    -38.460951     -0.011041181   -0.0060938016   0.029841901    430.8419       10.784472      10.753294      0.0042356396   49964.131    
   1224000   0.040039671   -38.521156      0.060057176   -38.461099      0.022273321   -0.046108898    0.00083740635  430.59049      10.799666      10.751783     -0.0076660567   49998.303    
   1226000   0.0401058     -38.521874      0.060156366   -38.461717      0.0017052847   0.026214652    0.0061865375   430.54895      10.808575      10.748138      0.011368825    50017.756    
   1228000   0.040172256   -38.521955      0.060256047   -38.461699      0.026008552   -0.02918355    -0.021369311    430.92736      10.812019      10.753202     -0.0081814365   50101.261    
   1230000   0.040329541   -38.521771      0.060491966   -38.461279     -0.075370199   -0.061577071   -0.034021528    430.99334      10.805282      10.750326     -0.056989599    50064.318    
   1232000   0.039891955   -38.521788      0.059835612   -38.461953      0.0015546525   0.009441476   -0.028925906    430.8521       10.802926      10.745478     -0.0059765926   50014.434    
   1234000   0.040012664   -38.52169       0.060016668   -38.461673     -0.058283327    0.0088638111  -0.020795801    430.85842      10.795332      10.754671     -0.023405105    50022.768    
   1236000   0.040103713   -38.520697      0.060153236   -38.460544      0.013178831   -0.0069204824  -0.0070640543   430.58092      10.784293      10.751533     -0.00026856848  49924.858    
   1238000   0.040071879   -38.521466      0.060105487   -38.46136      -0.033633584    0.035263958   -0.01452402     430.69501      10.776352      10.759578     -0.0042978821   49938.656    
   1240000   0.039801192   -38.521556      0.059699472   -38.461856      0.018589676    0.011609922   -0.020047931    430.64894      10.777532      10.75785       0.0033838891   49930.761    
   1242000   0.040080426   -38.521019      0.060118307   -38.4609        0.013168006    0.021796025   -0.003973469    430.62907      10.787745      10.748265      0.010330187    49931.246    
   1244000   0.039767248   -38.521435      0.059648558   -38.461787      0.032024782    0.0079736494  -0.0053776446   430.73569      10.802381      10.745886      0.011540262    50000.296    
   1246000   0.039922846   -38.521456      0.059881947   -38.461574      0.026672182   -0.061540063    0.012623242    430.42749      10.806564      10.75337      -0.0074148796   50018.681    
   1248000   0.040266991   -38.521625      0.060398143   -38.461227     -0.01015752    -0.0063835472   0.043730458    430.62565      10.798864      10.746415      0.0090631302   49973.709    
   1250000   0.040248202   -38.520864      0.060369961   -38.460494     -0.021068039   -0.012338485    0.0062855441   430.76547      10.791197      10.745014     -0.0090403267   49947.929    
   1252000   0.040430111   -38.521698      0.060642815   -38.461056     -0.067578625   -0.056677625   -0.024113468    430.60534      10.784288      10.754921     -0.049456573    49943.399    
   1254000   0.040267423   -38.521499      0.060398792   -38.4611        0.017851828   -0.0039064873   0.00059967453  430.66248      10.784543      10.758094      0.0048483385   49965.944    
   1256000   0.040041741   -38.521334      0.060060282   -38.461274     -0.034044943   -0.012308876   -0.0053308964   430.48018      10.784169      10.741759     -0.017228238    49867.235    
   1258000   0.040183497   -38.521553      0.060272908   -38.46128      -0.038901868   -0.0053205768  -0.046101954    430.33144      10.795764      10.745252     -0.030108133    49919.825    
   1260000   0.040123038   -38.521635      0.060182223   -38.461452      0.052623863    0.060123412    0.0090316722   430.04442      10.814773      10.756491      0.040592982    50026.644    
   1262000   0.040146002   -38.521346      0.060216667   -38.461129      0.0035300588  -0.018981571    0.016869666    430.5772       10.820945      10.743242      0.00047271793  50055.475    
   1264000   0.039824563   -38.521101      0.059734528   -38.461366      0.016923895    0.0011589544   0.010212634    430.4389       10.811278      10.750027      0.0094318278   50026.267    
   1266000   0.039870874   -38.520816      0.059803991   -38.461012     -0.028861308    0.032876383    0.0051514591   430.88184      10.800157      10.752602      0.0030555114   50038.218    
   1268000   0.040109065   -38.52166       0.060161264   -38.461499     -0.0022364017  -0.039640242   -0.024033624    430.94911      10.781763      10.744833     -0.021970089    49924.697    
   1270000   0.039994697   -38.522125      0.059989719   -38.462135      0.049910272    0.018425286    0.0004918893   430.93985      10.770424      10.749744      0.022942482    49893.917    
   1272000   0.039984638   -38.520839      0.05997463    -38.460864     -0.059777737   -0.0033665141   0.0048194759   430.74129      10.757272      10.758023     -0.019441592    49848.388    
   1274000   0.040229478   -38.521643      0.060341876   -38.461301      0.0032155425   0.029113267    0.0030472899   430.66231      10.757638      10.749841      0.011792033    49803.039    
   1276000   0.040060052   -38.521456      0.060087747   -38.461368     -0.036245653    0.047737946    0.048324985    430.25562      10.773157      10.742692      0.019939093    49794.646    
   1278000   0.039784832   -38.521287      0.059674933   -38.461612      0.071065143    0.067430457    0.041372065    430.06662      10.797725      10.747213      0.059955888    49907.273    
   1280000   0.039733862   -38.521444      0.059598481   -38.461845      0.011094604   -0.042553981    0.01734537     430.37641      10.810055      10.747134     -0.0047046688   49999.884    
   1282000   0.040057915   -38.521022      0.060084542   -38.460938     -0.0063724575  -0.031534446   -0.013517549    430.29647      10.813048      10.745124     -0.017141484    49995.087    
   1284000   0.040141499   -38.521445      0.060209914   -38.461235      0.033304408    0.014150762   -0.0040921491   430.14443      10.80847       10.750098      0.01445434     49979.391    
   1286000   0.040151613   -38.521997      0.060225084   -38.461772     -0.03365851    -0.031990875    0.0095252229   430.32181      10.790777      10.748117     -0.018708054    49908.953    
   1288000   0.040252799   -38.521703      0.060376856   -38.461326      0.014512652    0.017440838   -0.012910861    430.21819      10.780713      10.747741      0.0063475432   49848.656    
   1290000   0.039894501   -38.520735      0.05983943    -38.460895     -0.0018283656  -0.025925208   -0.019143781    430.21329      10.781873      10.756687     -0.015632452    49894.948    
   1292000   0.040117493   -38.521176      0.060173906   -38.461002      0.097553335   -0.036459882    0.031010996    430.31089      10.792401      10.746035      0.030701483    49905.53     
   1294000   0.040479132   -38.52148       0.060716343   -38.460764      0.00567056     0.014629795   -0.023857879    430.60103      10.796983      10.747048     -0.0011858415   49965.09     
   1296000   0.040144619   -38.521713      0.060214593   -38.461498     -0.038453233    0.0080201491   0.015710115    430.47647      10.798864      10.743166     -0.0049076563   49941.295    
   1298000   0.040130316   -38.521866      0.060193139   -38.461673      0.056452398    0.048010272    0.010045384    430.26508      10.794838      10.74313       0.038169351    49897.991    
   1300000   0.040349432   -38.521821      0.060521801   -38.461299      0.0077533798  -0.010992311    0.056592436    430.39542      10.786792      10.754419      0.017784502    49928.314    
   1302000   0.039921213   -38.521509      0.059879498   -38.461629      0.021753444    0.050632443   -0.0026198298   430.76593      10.782413      10.742008      0.023255352    49893.363    
   1304000   0.040096038   -38.521104      0.060141724   -38.460962     -0.10283356    -0.0089419114   0.019832591    430.56207      10.780903      10.744556     -0.030647626    49874.596    
   1306000   0.03997168    -38.521268      0.059955194   -38.461313      0.0024322733  -0.0095392196   6.5146999e-05  430.25331      10.784238      10.754693     -0.0023472664   49901.283    
   1308000   0.039918709   -38.521682      0.059875741   -38.461806      0.019854259    0.0027850567  -0.038740544    430.34472      10.785275      10.745491     -0.0053670763   49873.974    
   1310000   0.039950194   -38.521526      0.059922967   -38.461603     -0.016000203   -0.044679686    0.034451974    430.3108       10.794345      10.748487     -0.0087426381   49925.896    
   1312000   0.03991647    -38.522202      0.059872382   -38.462329     -0.013664068   -0.015089953    0.023304721    430.2149       10.805687      10.747673     -0.0018164335   49963.431    
   1314000   0.040199705   -38.521649      0.060297218   -38.461352      0.0049763384  -0.0080698292  -0.0058842107   429.92143      10.806515      10.737928     -0.0029925671   49887.904    
   1316000   0.040090002   -38.521527      0.06013267    -38.461394      0.034902743    0.013131012   -0.024694576    429.84201      10.798612      10.755206      0.0077797263   49922.407    
   1318000   0.040088138   -38.521542      0.060129874   -38.461412     -0.036055319   -0.073419248    0.0058731393   429.86882      10.789097      10.747351     -0.034533809    49845.1      
   1320000   0.039928664   -38.521499      0.059890673   -38.461609      0.0025702802  -0.012070905    0.003250524    430.21755      10.774778      10.746595     -0.0020833668   49815.825    
   1322000   0.040133419   -38.521307      0.060197793   -38.461109     -0.0052043261   0.057418904   -0.023096813    430.13801      10.766942      10.7573        0.0097059217   49819.97     
   1324000   0.040340532   -38.521747      0.060508451   -38.461239      0.043640937   -0.02215341    -0.018830138    430.40767      10.767702      10.748257      0.00088579662  49812.812    
   1326000   0.040201418   -38.521002      0.060299788   -38.460702     -0.03282729    -0.068906876    0.0032084105   430.58309      10.77344       10.74385      -0.032841918    49839.228    
   1328000   0.039753955   -38.521423      0.059628619   -38.461795      0.038466252    0.036082808    0.004619097    430.30762      10.789263      10.747983      0.026389386    49899.682    
   1330000   0.039827782   -38.521267      0.059739356   -38.461528      0.037488935    0.023463691    0.0036874315   430.06217      10.802902      10.746056      0.021546686    49925.314    
   1332000   0.040053591   -38.521676      0.060078056   -38.461598      0.0035989488   0.031637921    0.043405758    429.90538      10.808482      10.739375      0.026214209    49901.844    
   1334000   0.039987839   -38.521378      0.059979432   -38.461398      0.044757277    0.050827771    0.0068581942   430.04512      10.803144      10.74708       0.034147747    49929.206    
   1336000   0.039888579   -38.521317      0.059830547   -38.461486      0.12773745    -0.016200123   -0.033440945    430.01589      10.79477       10.755628      0.026032126    49926.79     
   1338000   0.039863277   -38.521454      0.059792596   -38.461662      0.088711153    0.039794933    0.077184346    430.38409      10.774732      10.743723      0.068563477    49821.581    
   1340000   0.040097863   -38.521667      0.060144461   -38.461523     -0.035127443   -0.034039053    0.061231053    430.42952      10.765597      10.745946     -0.0026451476   49794.895    
   1342000   0.039995214   -38.521709      0.059990494   -38.461719     -0.050334258   -0.00022894933 -0.027954916    430.35812      10.768507      10.753307     -0.026172708    49834.205    
   1344000   0.040186413   -38.522021      0.060277281   -38.461744      0.0046719241  -0.011313815    0.0096553113   430.20889      10.785245      10.748773      0.0010044734   49873.322    
   1346000   0.039762922   -38.522211      0.059642069   -38.462569      0.031977551    0.054590528   -0.0023594437   429.79015      10.80326       10.742404      0.028069545    49878.43     
   1348000   0.040068061   -38.521271      0.06009976    -38.461172      0.021929433   -0.04309679     0.019111643    429.60506      10.813305      10.752599     -0.0006852378   49950.666    
   1350000   0.039917203   -38.521638      0.059873482   -38.461764     -0.011382257    0.0036048274  -0.013653823    429.46653      10.807322      10.745939     -0.0071437511   49876.018    
   1352000   0.040167698   -38.521863      0.06024921    -38.461614      0.001547434    0.04857369     0.03308214     429.35915      10.797041      10.743958      0.027734421    49806.928    
   1354000   0.040025121   -38.521671      0.060035352   -38.461636     -0.049046208   -0.032505297   -0.060868999    429.3766       10.786715      10.74357      -0.047473501    49759.52     
   1356000   0.039961401   -38.52164       0.059939777   -38.461701      0.045260626    0.018358456    0.032133184    429.82378      10.77719       10.751088      0.031917422    49802.186    
   1358000   0.040317548   -38.521829      0.060473976   -38.461355      0.018975002   -0.024115913    0.023816047    429.79395      10.770827      10.746653      0.0062250454   49748.793    
   1360000   0.039761612   -38.521356      0.059640105   -38.461716      0.014796585   -0.033187619    0.031285985    429.60722      10.774387      10.750955      0.0042983168   49763.534    
   1362000   0.040083404   -38.520851      0.060122774   -38.460728     -0.088061831    0.014696102   -0.025013083    429.53858      10.785526      10.753022     -0.032792937    49816.594    
   1364000   0.039902956   -38.521211      0.059852112   -38.461359     -0.029775541    0.036998601    0.033743125    429.52911      10.797829      10.745162      0.013655395    49835.871    
   1366000   0.03973833    -38.521566      0.059605184   -38.461961     -0.026834025    0.015990074   -0.01314664     429.5077       10.805603      10.739346     -0.0079968636   49842.269    
   1368000   0.040201279   -38.521479      0.06029958    -38.46118       0.10974375     0.016295242   -0.043511932    429.24486      10.8041        10.747809      0.02750902     49844.084    
   1370000   0.039711531   -38.521869      0.059564986   -38.462304     -0.086551692   -0.017009415   -0.008213957    429.60549      10.798934      10.744424     -0.037258355    49846.406    
   1372000   0.040077698   -38.521947      0.060114215   -38.461833      0.016503214   -0.020162597   -0.0086545119   429.58396      10.789235      10.742648     -0.0041046318   49790.907    
   1374000   0.039619233   -38.521802      0.059426545   -38.462376      0.024518341   -0.012926604   -0.017131867    429.67845      10.781264      10.746841     -0.00184671     49784.492    
   1376000   0.040411454   -38.521671      0.06061483    -38.461056     -0.089893629   -0.0092419903  -0.053939128    429.60793      10.786853      10.747891     -0.051024916    49806.989    
   1378000   0.039752537   -38.52197       0.059626492   -38.462343     -0.040316872   -0.028117441    0.013135081    429.64781      10.798988      10.753041     -0.018433077    49891.547    
   1380000   0.039629094   -38.521531      0.059441336   -38.46209       0.027617216    0.013951417    0.026435894    429.2303       10.812605      10.75143       0.022668176    49898.435    
   1382000   0.040084638   -38.521476      0.060124624   -38.461352     -0.022107452   -0.01667481    -0.0033965734   429.03181      10.821582      10.740381     -0.014059612    49865.476    
   1384000   0.040124627   -38.521593      0.060184605   -38.461408     -0.03227865    -0.020891024    0.010815547    429.30131      10.814368      10.750169     -0.014118042    49908.973    
   1386000   0.040211784   -38.521169      0.060315337   -38.460854      0.034272074   -0.020394582    0.046854967    429.68848      10.79941       10.751038      0.020244153    49888.923    
   1388000   0.039714624   -38.521504      0.059569625   -38.461934     -0.0076342924   0.0031464444  -0.0092116438   429.47565      10.784756      10.748972     -0.0045664973   49786.981    
   1390000   0.039927883   -38.521433      0.059889501   -38.461543     -0.00099441896  0.055699557    0.0016730958   429.68025      10.778555      10.740828      0.018792745    49744.341    
   1392000   0.039697783   -38.521839      0.059544365   -38.462294     -0.056669649    0.046790327    0.029735153    429.3007       10.783653      10.744179      0.0066186101   49739.421    
   1394000   0.04043884    -38.52138       0.060655908   -38.460725      0.059313463    0.0051992515   0.036273373    429.04787      10.793561      10.759293      0.033595363    49825.79     
   1396000   0.03989853    -38.521757      0.059845474   -38.461912      0.052125627    0.022199792    0.027254262    429.3141       10.799888      10.747537      0.033859894    49831.435    
   1398000   0.039947908   -38.521501      0.059919537   -38.461581     -0.0064174399   0.013324287   -0.013756144    429.38941      10.801166      10.744205     -0.0022830987   49830.616    
   1400000   0.040114087   -38.521382      0.060168796   -38.461213      0.074488258    0.073744057   -0.0074464596   429.26151      10.80284       10.752061      0.046928618    49859.923    
   1402000   0.03982452    -38.521886      0.059734463   -38.462151     -0.00023669349 -0.03936813     0.0080879809   429.05558      10.800588      10.756106     -0.010505614    49844.363    
   1404000   0.040121949   -38.52197       0.060180589   -38.46179       0.047183305   -0.028724369   -0.03088232     429.26446      10.79662       10.7442       -0.0041411281   49795.123    
   1406000   0.039507181   -38.521863      0.059258473   -38.462604     -0.095771513   -0.014020819   -0.015548488    429.29341      10.804809      10.747598     -0.041780273    49852.018    
   1408000   0.040283154   -38.521515      0.060422388   -38.461093      0.023107559    0.036666648    0.029268409    429.07144      10.80729       10.750704      0.029680872    49852.087    
   1410000   0.039994806   -38.521423      0.059989882   -38.461433     -0.084720052   -0.040003489   -0.0096217192   429.23783      10.80815       10.749078     -0.044781753    49867.841    
   1412000   0.040139358   -38.521118      0.060206702   -38.460911     -0.021843777   -0.010777627   -0.0052662884   429.03826      10.812348      10.74784      -0.012629231    49858.269    
   1414000   0.039963032   -38.521386      0.059942223   -38.461444     -0.090200882   -0.032877993   -0.024220405    429.09116      10.81126       10.74863      -0.04909976     49863.069    
   1416000   0.039874595   -38.521727      0.059809573   -38.461917      0.015755129   -0.0013710923   0.017614352    429.02286      10.799733      10.752675      0.010666129    49820.713    
   1418000   0.040034951   -38.521977      0.060050097   -38.461927      0.011369477   -0.005288398    0.019380338    428.97292      10.782454      10.742588      0.0084871389   49688.564    
   1420000   0.039681376   -38.521406      0.059519756   -38.461886     -0.054669316    0.04332135    -0.016485126    429.14284      10.768579      10.750409     -0.0092776976   49680.419    
   1422000   0.040139066   -38.521782      0.060206263   -38.461576      0.006832038   -0.050645147    0.0048216731   429.00799      10.770315      10.750479     -0.012997145    49673.138    
   1424000   0.040298587   -38.521375      0.060445536   -38.460929      0.013226056   -0.047819593   -0.0066993214   429.30083      10.783944      10.74214      -0.013764286    49731.339    
   1426000   0.040083151   -38.522039      0.060122395   -38.461917     -0.037354677    0.013464822   -0.014429318    429.13396      10.799518      10.753747     -0.012773058    49837.596    
   1428000   0.040230324   -38.521423      0.060343145   -38.46108      -0.062905774    0.041865703   -0.014542055    428.99994      10.81038       10.74399      -0.011860709    49826.893    
   1430000   0.039839408   -38.521536      0.059756794   -38.461779     -0.064528443   -0.068645922   -0.031855241    428.97925      10.809814      10.741572     -0.055009869    49810.665    
   1432000   0.039605479   -38.521101      0.059405914   -38.461695      0.087226501   -0.007380497    0.040099572    428.70231      10.793491      10.75421       0.039981859    49761.82     
   1434000   0.039976845   -38.521909      0.059962942   -38.461946      0.032480547   -0.0031171439  -0.0093386074   428.74232      10.777386      10.741208      0.0066749318   49632.129    
   1436000   0.039894155   -38.521639      0.059838911   -38.4618       -0.017558154    0.061606337    0.0042025119   428.82722      10.772309      10.749055      0.016083565    49654.826    
   1438000   0.04047835    -38.522278      0.060715171   -38.461563     -0.049221711    0.0080178299   0.0014067058   428.99352      10.771914      10.752936     -0.013265725    49690.194    
   1440000   0.040016346   -38.520922      0.060022191   -38.4609       -0.034093902   -0.078598277    0.016592148    428.97783      10.782531      10.748386     -0.032033343    49716.304    
   1442000   0.040266353   -38.521631      0.060397187   -38.461234     -0.021692175    0.00034024597  0.035915877    429.0458       10.800097      10.74057       0.0048546495   49768.969    
   1444000   0.040297817   -38.522138      0.060444381   -38.461693     -0.028744593   -0.021160993   -0.023799323    428.65039      10.803469      10.75102      -0.024568303    49787.018    
   1446000   0.039640743   -38.521065      0.059458809   -38.461606      0.0223789      0.0099533524   0.066328829    428.7998       10.796551      10.741507      0.032887027    49728.437    
   1448000   0.040147864   -38.521502      0.06021946    -38.461282      0.052731546    0.029180784    0.04673173     428.73867      10.790756      10.745492      0.042881353    49713.096    
   1450000   0.03992995    -38.521939      0.059892602   -38.462046      0.092932732   -0.016877984   -0.019492656    429.05994      10.781113      10.753502      0.018854031    49742.943    
   1452000   0.040025507   -38.521522      0.060035932   -38.461486     -0.010900002   -0.01246678    -0.037946167    428.93007      10.773028      10.740797     -0.02043765     49631.889    
   1454000   0.040131972   -38.521289      0.060195624   -38.461094     -0.0024621655   0.010928886    0.015074315    429.33678      10.769216      10.745524      0.0078470117   49683.229    
   1456000   0.040334185   -38.52199       0.060498931   -38.461491     -0.06589385    -0.00020196878 -0.019102531    428.81957      10.769664      10.752097     -0.02839945     49655.796    
   1458000   0.039923219   -38.522034      0.059882506   -38.462152      0.0091268838  -0.014775143    0.027083127    428.9145       10.781226      10.74124       0.0071449559   49669.901    
   1460000   0.040195812   -38.521581      0.060291379   -38.461289     -0.030756058   -0.0067787215  -0.062444249    428.93521      10.786921      10.749905     -0.033326343    49738.626    
   1462000   0.040382893   -38.521693      0.060571989   -38.461121     -0.037838735    0.018037933    0.026269535    428.76327      10.781909      10.751897      0.0021562443   49704.801    
   1464000   0.040101377   -38.521613      0.060149733   -38.461464      0.0071045253  -0.04400202     0.0021307289   429.10186      10.777254      10.742442     -0.011588922    49678.849    
   1466000   0.040020958   -38.521778      0.060029109   -38.461749      0.065200651    0.033801156    0.012854857    429.25544      10.777023      10.751401      0.037285554    49737.011    
   1468000   0.04042397    -38.521589      0.060633603   -38.460956     -0.017360064    0.034617155   -0.025023653    429.39433      10.778954      10.745882     -0.0025888541   49736.473    
   1470000   0.040033816   -38.521517      0.060048394   -38.461469     -0.050296171    0.0038096503   0.0076002163   429.35864      10.785835      10.747634     -0.012962101    49772.2      
   1472000   0.039984201   -38.522006      0.059973975   -38.462032     -0.027333506   -0.014306497    0.016162293    429.07851      10.791457      10.756163     -0.0084925697   49805.149    
   1474000   0.04052845    -38.52121       0.060790317   -38.46042       0.022259105   -0.027167951   -0.013681287    428.75526      10.804286      10.74823      -0.0061967112   49790.045    
   1476000   0.040094987   -38.521759      0.060140148   -38.461619     -0.0035122826   0.013879933   -0.022982128    428.87032      10.80639       10.745489     -0.0042048262   49800.401    
   1478000   0.040269242   -38.521344      0.060401521   -38.460943      0.030314024    0.030479672    0.01516056     428.9849       10.79798       10.738174      0.025318085    49741.052    
   1480000   0.040198264   -38.521993      0.060295057   -38.461698     -0.08148088     0.037434826    0.0084933818   429.30722      10.783689      10.754569     -0.011850891    49788.447    
   1482000   0.040118066   -38.521914      0.060174766   -38.46174      -0.007948189   -0.025630295    0.027555769    429.05945      10.765727      10.751884     -0.0020075717   49664.425    
   1484000   0.039662575   -38.521461      0.059491554   -38.461969      0.045420734   -0.0015989257   0.011680043    429.10241      10.763186      10.743857      0.018500617    49620.599    
   1486000   0.04015048    -38.521872      0.060223383   -38.461648      0.050326039   -0.039864964   -0.040918503    429.01558      10.768777      10.753525     -0.010152476    49680.996    
   1488000   0.039924421   -38.52099       0.059884308   -38.461106     -0.010915133   -0.025610875   -0.019835152    428.97597      10.778491      10.743965     -0.018787053    49677.02     
   1490000   0.040362828   -38.521307      0.060541894   -38.460765     -0.02372109    -0.010264324   -0.0050605621   428.81193      10.790883      10.752292     -0.013015325    49753.642    
   1492000   0.040223435   -38.521979      0.060332812   -38.461646     -0.057866487   -0.018163567    0.011931651    428.5046       10.790146      10.747809     -0.021366134    49693.862    
   1494000   0.039968087   -38.521876      0.059949805   -38.461926     -0.039407744    0.087400805   -0.0051945239   428.56682      10.787349      10.734686      0.014266179    49627.525    
   1496000   0.039821083   -38.521377      0.059729307   -38.461647      0.00028979531 -0.024694253   -0.022257825    428.56822      10.784072      10.754595     -0.015554094    49704.626    
   1498000   0.039829446   -38.522112      0.059741851   -38.46237       0.014700405    0.025579631   -0.014966352    428.66275      10.780824      10.759573      0.0084378947   49723.622    
   1500000   0.0405605     -38.521854      0.060838391   -38.461016      0.10333549     0.027022518    0.054062776    428.79178      10.78218       10.739135      0.061473593    49650.352    
   1502000   0.039748061   -38.521666      0.059619779   -38.462047      0.04496222    -0.023083591   -0.009419951    428.96048      10.782405      10.745307      0.0041528927   49699.468    
   1504000   0.039910828   -38.521806      0.05986392    -38.461942     -0.030814432    0.026770644    0.019966203    429.18166      10.781653      10.752413      0.0053074715   49754.507    
   1506000   0.039641773   -38.52135       0.059460354   -38.46189       0.0094196961  -0.0060639892   0.0039135108   428.95794      10.778529      10.745531      0.0024230726   49682.345    
   1508000   0.039859465   -38.521596      0.059786878   -38.461809     -0.0068709523  -0.028980794   -0.02895296     429.00995      10.773309      10.743411     -0.021601569    49654.506    
   1510000   0.039973851   -38.521047      0.059958451   -38.461089      0.04226912     0.013175566    0.04694821     429.16725      10.774085      10.753501      0.034130965    49722.943    
   1512000   0.039551842   -38.52178       0.059325461   -38.462455     -0.052029893   -0.013701642   -0.019631005    429.15258      10.782278      10.750764     -0.02845418     49746.393    
   1514000   0.040271419   -38.521863      0.060404785   -38.461459     -0.021354775    0.014682866   -0.011450004    429.33012      10.779499      10.736943     -0.0060406379   49690.182    
   1516000   0.039798852   -38.521168      0.059695962   -38.461472     -0.00084714449 -0.016972272   -0.0026241865   429.14826      10.778729      10.747708     -0.0068145343   49715.382    
   1518000   0.039965632   -38.52151       0.059946123   -38.461564      0.013622157    0.024253847   -0.021579795    428.96899      10.772172      10.753423      0.0054320698   49690.788    
   1520000   0.040267405   -38.521745      0.060398765   -38.461346     -0.010671799    0.029950619    0.0021330702   428.85173      10.76775       10.745616      0.007137297    49620.764    
   1522000   0.040089909   -38.521862      0.060132531   -38.461729      0.026331741    0.020867901   -0.01596696     428.74071      10.760662      10.754081      0.010410894    49614.321    
   1524000   0.040167382   -38.522327      0.060248736   -38.462078      0.083739515   -0.015437984   -0.031092954    428.88264      10.756788      10.746414      0.012402859    49577.504    
   1526000   0.040116362   -38.521893      0.060172209   -38.46172      -0.0023113594  -0.00048204691  0.037700983    429.1578       10.766556      10.74065       0.011635859    49627.728    
   1528000   0.039620758   -38.521574      0.059428832   -38.462145     -0.043294765   -0.057702466    0.016096616    428.98762      10.779827      10.751914     -0.028300205    49721.287    
   1530000   0.040100872   -38.521587      0.060148974   -38.461438      0.0015009781   0.011314365    0.031555008    428.71453      10.784282      10.739486      0.014790117    49652.708    
   1532000   0.039871167   -38.521905      0.05980443    -38.4621       -0.0012789389   0.0051251994   0.0036263109   428.58495      10.780314      10.740065      0.0024908571   49622.111    
   1534000   0.039838667   -38.521812      0.059755682   -38.462056      0.01849017    -0.0083426674  -0.039294757    428.57551      10.776159      10.748387     -0.0097157516   49640.324    
   1536000   0.039939077   -38.521149      0.059906291   -38.461242     -0.030947378   -0.0048096222  -0.026956601    428.49123      10.765914      10.750409     -0.020904534    49592.709    
   1538000   0.039504993   -38.521553      0.059255191   -38.462297      0.017724688    0.016369015    0.022394222    428.72915      10.745936      10.744126      0.018829308    49499.216    
   1540000   0.039655417   -38.521332      0.059480819   -38.461851      0.051885703   -0.0013259066   0.01749301     428.91953      10.740719      10.748329      0.022684269    49516.522    
   1542000   0.039760587   -38.521332      0.059638566   -38.461694     -0.0020365891  -0.014769139    0.015339831    428.71705      10.748899      10.744499     -0.00048863216  49513.189    
   1544000   0.039907648   -38.521559      0.05985915    -38.4617       -0.019065267    0.01488892    -0.0077776197   428.67336      10.75912       10.749873     -0.0039846555   49580.008    
   1546000   0.040192231   -38.522371      0.060286008   -38.462085     -0.077911591    0.032878947    0.05614306     428.26867      10.766885      10.745111      0.0037034722   49546.991    
   1548000   0.039778495   -38.521134      0.059665429   -38.461469     -0.044727161   -0.032458286   -0.028822601    428.21109      10.778531      10.746664     -0.035336016    49601.083    
   1550000   0.04025923    -38.52175       0.060386502   -38.461364      0.0048029095   0.00047113853 -0.0038477528   427.98132      10.790091      10.743144      0.00047543175  49611.377    
   1552000   0.040081428   -38.521393      0.060119811   -38.461273     -0.022290949    0.012459074    0.027551078    428.47751      10.783977      10.73467       0.0059064011   49601.603    
   1554000   0.04010304    -38.522036      0.060152226   -38.461884     -0.049554959   -0.0051011837   0.0080440836   428.18393      10.776414      10.750281     -0.015537353    49604.886    
   1556000   0.039845562   -38.522027      0.059766025   -38.462261     -0.056309085    0.018011472   -0.013262418    428.3187       10.768038      10.753559     -0.017186677    49597.047    
   1558000   0.039567908   -38.521324      0.059349559   -38.461974      0.12054151     0.0089831661   0.05130427     428.49946      10.762982      10.753543      0.060276315    49594.608    
   1560000   0.039906292   -38.521853      0.059857117   -38.461996      0.017502258    0.056369721    0.045512521    428.38209      10.757507      10.739163      0.039794833    49489.537    
   1562000   0.040065755   -38.521429      0.060096301   -38.461333     -0.032104678   -0.018509776    0.02168389     428.29293      10.758688      10.746265     -0.0096435213   49517.395    
   1564000   0.03976342    -38.521606      0.059642816   -38.461963     -0.0096935702  -0.055986854   -0.05065145     428.53873      10.760331      10.748119     -0.038777292    49561.926    
   1566000   0.03980868    -38.521103      0.059710703   -38.461392     -0.0031281124   0.021106088    0.013066948    428.55554      10.76504       10.742521      0.010348308    49559.735    
   1568000   0.040328262   -38.521913      0.060490046   -38.461423     -0.036556682   -0.029859989   -0.049402451    428.34801      10.767231      10.750926     -0.038606374    49584.581    
   1570000   0.040181405   -38.52158       0.06026977    -38.461311      0.052815694    0.021527652   -0.013819296    428.17362      10.768613      10.745422      0.020174683    49545.379    
   1572000   0.040299501   -38.521446      0.060446907   -38.460999     -0.0081081633  -0.0096025684  -0.040106324    428.22321      10.782053      10.74449      -0.019272352    49608.655    
   1574000   0.040136716   -38.521875      0.060202739   -38.461672      0.035503816   -0.022724344   -0.0053830384   427.97805      10.803703      10.751307      0.0024654778   49711.333    
   1576000   0.040195203   -38.521304      0.060290466   -38.461013      0.036162643   -0.029361344   -0.0061909753   427.94441      10.818393      10.743846      0.00020344134  49740.468    
   1578000   0.040340557   -38.521311      0.060508488   -38.460802      0.086268741    0.016065943   -0.024075243    427.80595      10.818109      10.740388      0.02608648     49707.069    
   1580000   0.040025943   -38.521687      0.060036585   -38.461651     -0.043279061   -0.037449117   -0.028297203    428.06071      10.801282      10.743578     -0.036341794    49674.055    
   1582000   0.040164747   -38.52148       0.060244784   -38.461235      0.0214685     -0.0117702      0.032867004    427.94567      10.769155      10.747214      0.014188435    49529.751    
   1584000   0.039774278   -38.521962      0.059659102   -38.462303     -0.080010144    0.018753284   -0.00042058065  428.28275      10.749368      10.751705     -0.020559147    49498.367    
   1586000   0.039711885   -38.521427      0.059565516   -38.461861      0.024489023    0.037941584    0.01245675     428.56081      10.746424      10.750805      0.024962452    49512.792    
   1588000   0.039696112   -38.522247      0.059541859   -38.462705     -0.031347531    0.021825468   -0.01729676     428.6832       10.756229      10.750938     -0.0089396077   49572.733    
   1590000   0.040121848   -38.521552      0.060180438   -38.461372      0.0324502      0.0080593983  -0.025583887    428.67622      10.778158      10.754718      0.004975237    49690.458    
   1592000   0.040020354   -38.521592      0.060028202   -38.461564      0.015155472    0.021747976    0.053783604    428.29964      10.793634      10.749348      0.030229017    49693.264    
   1594000   0.040340267   -38.521441      0.060508053   -38.460933     -0.035122775    0.010051647    0.020715538    428.45608      10.79162       10.743212     -0.0014518633   49673.769    
   1596000   0.039936563   -38.52151       0.059902521   -38.461608      0.047160556    0.024799327    0.00024599222  428.58307      10.777183      10.746216      0.024068625    49635.889    
   1598000   0.039812218   -38.521237      0.05971601    -38.461521     -0.027615965   -0.02723997     0.032175082    428.60246      10.766341      10.747749     -0.007560284    49595.274    
   1600000   0.039701247   -38.521473      0.05954956    -38.461923      0.018125699    0.02891032     0.020272241    428.68639      10.758055      10.746099      0.022436086    49559.202    
   1602000   0.039819199   -38.521633      0.059726482   -38.461907      0.071179274    0.041067059    0.011251609    428.71059      10.764345      10.752875      0.041165981    49622.248    
   1604000   0.039796358   -38.521367      0.059692222   -38.461675     -0.11148573     0.023382994   -0.051236785    428.42665      10.773488      10.74863      -0.046446508    49611.911    
   1606000   0.04008806    -38.521763      0.060129758   -38.461634     -0.093979932   -0.049990187   -0.035708267    428.39312      10.776118      10.742368     -0.059892796    49591.225    
   1608000   0.04009718    -38.5218        0.060143437   -38.461657      0.05154515     0.063010974    0.023188229    428.51768      10.770456      10.748058      0.045914784    49605.844    
   1610000   0.039889481   -38.522361      0.0598319     -38.462529     -0.022972675    0.024197926    0.0003160911   428.0248       10.768983      10.751494      0.00051378085  49557.848    
   1612000   0.039887756   -38.521573      0.059829313   -38.461744     -0.015500641    0.050182948    0.0078190099   428.03531      10.7735        10.74227       0.014167106    49537.318    
   1614000   0.039859428   -38.52155       0.059786823   -38.461763     -0.014527904   -0.0037738562   0.011605582    428.2262       10.78509       10.743896     -0.0022320596   49620.236    
   1616000   0.040050771   -38.521746      0.060073826   -38.461672     -0.053864656    0.023129345    0.0010916881   428.40725      10.789318      10.742352     -0.0098812076   49653.536    
   1618000   0.04008494    -38.521747      0.060125078   -38.461622     -0.029240314   -0.024473425   -0.029715056    428.24932      10.79325       10.739163     -0.027809598    49638.581    
   1620000   0.04023708    -38.521868      0.060353279   -38.461514      0.002862233   -0.011323048    0.020385151    427.99529      10.793067      10.739437      0.0039747784   49609.56     
   1622000   0.040006059   -38.522188      0.060006761   -38.462181     -0.022946482   -0.013186964   -0.026743916    428.05493      10.776562      10.75025      -0.020959121    49590.478    
   1624000   0.039928085   -38.521674      0.059889805   -38.461784      0.033482568   -0.016403497   -0.004813064    427.97652      10.758361      10.742455      0.0040886691   49461.765    
   1626000   0.040500117   -38.521921      0.060747818   -38.461173     -0.040361741   -0.041003349   -0.022514334    428.38976      10.752631      10.745132     -0.034626474    49495.485    
   1628000   0.040391191   -38.521612      0.060584437   -38.461027      0.0038874894   0.0025748233  -0.0044716115   428.18286      10.746437      10.748948      0.00066356708  49460.637    
   1630000   0.040221021   -38.521997      0.060329191   -38.461667      0.085490876    0.018669836    0.0057826837   428.02364      10.74855       10.744369      0.036647799    49430.902    
   1632000   0.039840069   -38.521904      0.059757785   -38.462146     -0.0053724041  -0.0077952353   0.012293375    427.96919      10.767335      10.741767     -0.00029142162  49499.004    
   1634000   0.03993306    -38.521324      0.059897267   -38.461427      0.041291762    0.02043641     0.00098493317  427.94005      10.789693      10.745323      0.020904369    49614.827    
   1636000   0.040455086   -38.522129      0.060680275   -38.461449      0.0072895585   0.040515871    0.013809063    428.09263      10.798834      10.739095      0.020538164    49645.779    
   1638000   0.039955875   -38.52137       0.059931487   -38.461439     -0.065934145   -0.040459156   -0.023650662    428.13573      10.791835      10.74853      -0.043347988    49662.19     
   1640000   0.03992921    -38.521676      0.059891492   -38.461784     -0.024993326   -0.022011614   -0.052421744    428.20223      10.774956      10.744837     -0.033142228    49575.174    
   1642000   0.040363535   -38.521556      0.060542954   -38.461013     -0.083055836    0.00092863737  0.003343944    428.51562      10.760798      10.743752     -0.026261085    49541.264    
   1644000   0.040372627   -38.522043      0.060556591   -38.461486      3.919407e-05  -0.009436756    0.032683359    428.55472      10.748452      10.751981      0.0077619323   49526.849    
   1646000   0.039620068   -38.521972      0.059427796   -38.462544      0.034439251   -0.026125513    0.03684405     428.7147       10.750946      10.751577      0.015052596    49554.971    
   1648000   0.039838897   -38.521622      0.059756028   -38.461866      0.02334123     0.0064987792   0.016037318    428.66135      10.754563      10.745847      0.015292442    49539.059    
   1650000   0.040236182   -38.521242      0.060351932   -38.46089       0.012144865    0.042897225    0.041928191    428.6926       10.763515      10.74095       0.032323427    49561.31     
   1652000   0.039932191   -38.521805      0.059895964   -38.46191      -0.064195174   -0.083693664   -0.00011213972  428.28104      10.771498      10.753571     -0.049333659    49608.676    
   1654000   0.040515523   -38.522084      0.060770927   -38.461313     -0.012220168    0.003805494    0.008415916    428.38708      10.775216      10.739539      4.140938e-07   49573.321    
   1656000   0.040375269   -38.521577      0.060560555   -38.461016      0.052303934   -0.021565154   -0.017910517    427.92784      10.778711      10.742207      0.0042760876   49548.544    
   1658000   0.04048769    -38.521679      0.060729179   -38.46095       0.034467085    0.0052515976  -0.016055838    428.12481      10.76666       10.749046      0.0078876147   49547.449    
   1660000   0.039954259   -38.521635      0.059929063   -38.461705     -0.012193161   -0.05500367     0.048306737    428.09696      10.758716      10.738524     -0.0062966978   49459.208    
   1662000   0.040133107   -38.521565      0.060197325   -38.461368     -0.0031454255   0.0319695     -0.011204246    428.37701      10.755758      10.745968      0.0058732762   49512.256    
   1664000   0.039811375   -38.52184       0.059714746   -38.462125      0.076546178    0.018098258    0.0055702208   428.08588      10.76153       10.751069      0.033404886    49528.66     
   1666000   0.040117199   -38.521335      0.060173465   -38.461161     -0.012968763    0.0092535357  -0.0075267635   428.10257      10.776708      10.741191     -0.0037473301   49554.876    
   1668000   0.039763831   -38.521177      0.059643432   -38.461533      0.089716861   -0.0033618022   0.079109486    427.88851      10.79516       10.747644      0.055154848    49644.706    
   1670000   0.039644404   -38.521937      0.0594643     -38.462472      0.00063089294 -0.037489621    0.016492527    427.89568      10.800625      10.742636     -0.0067887339   49647.528    
   1672000   0.040057188   -38.522003      0.060083451   -38.46192      -0.0084041947   0.01612995    -0.0070983954   427.51144      10.795887      10.735315      0.00020912005  49547.401    
   1674000   0.040044153   -38.521335      0.0600639     -38.461271     -0.042782595    0.030639213   -0.0017360525   427.69056      10.783521      10.751555     -0.0046264783   49586.279    
   1676000   0.039985098   -38.521184      0.05997532    -38.461209      0.0044308186   0.010314656    0.0099438537   427.63997      10.768083      10.752514      0.0082297762   49513.851    
   1678000   0.04014759    -38.521695      0.060219049   -38.461476      0.0314158      0.054702498   -0.023864782    427.75596      10.754263      10.739094      0.020751172    49401.98     
   1680000   0.040083476   -38.521113      0.060122881   -38.46099       0.060662175   -0.047526808    0.023658592    427.74145      10.743907      10.743852      0.012264653    49374.599    
   1682000   0.040198875   -38.521684      0.060295974   -38.461388     -0.010496158   -0.018669592    0.0088835528   428.15229      10.739601      10.749619     -0.0067607322   49428.737    
   1684000   0.039797785   -38.521722      0.059694361   -38.462028     -0.029137583   -0.027411659    0.02501702     428.18746      10.741752      10.747345     -0.010510741    49432.237    
   1686000   0.04044502    -38.52135       0.060665176   -38.460685      0.01857175    -0.038369474   -0.0055047108   428.21858      10.765393      10.743943     -0.0084341452   49528.946    
   1688000   0.040005696   -38.521423      0.060006216   -38.461417      0.0093479384   0.0083413329   0.0054852709   428.20123      10.788673      10.745996      0.0077248474   49643.525    
   1690000   0.039977809   -38.521946      0.059964388   -38.461981      0.016244757   -0.00077689002  0.042294962    428.05292      10.800507      10.741936      0.019254276    49661.995    
   1692000   0.039928853   -38.52118       0.059890957   -38.461289      0.024205971   -0.049603654   -0.015741278    428.20262      10.804703      10.741895     -0.013712987    49698.474    
   1694000   0.039818096   -38.521429      0.059724828   -38.461704     -0.0035544331  -0.014284884   -0.0012724826   428.04551      10.787976      10.747009     -0.0063705998   49626.943    
   1696000   0.040270434   -38.521477      0.060403308   -38.461074     -0.013959835    0.040484266   -0.041013143    428.13715      10.767253      10.743928     -0.0048295708   49528.013    
   1698000   0.040322764   -38.522185      0.0604818     -38.461704     -0.016144664    0.021546074    0.0072730123   428.1734       10.753897      10.746346      0.0042248073   49481.899    
   1700000   0.040200734   -38.521323      0.060298762   -38.461024      0.017230068   -0.057524183   -0.039695041    428.39533      10.744687      10.756087     -0.026663052    49509.988    
   1702000   0.040139184   -38.52164       0.06020644    -38.461433     -0.0023927957   0.077323794    0.033112677    428.35838      10.74055       10.744987      0.036014559    49435.582    
   1704000   0.040210341   -38.520972      0.060313172   -38.460659      0.020075839   -0.015786088   -0.069816996    428.1376       10.746873      10.750608     -0.021842415    49465.06     
   1706000   0.040332418   -38.52255       0.060496281   -38.462054      0.030910422    0.040851045    0.024896376    427.87048      10.766272      10.751496      0.032219281    49527.519    
   1708000   0.040196308   -38.52178       0.060292124   -38.461488      0.0056903559  -0.029892826    0.019489697    427.75477      10.789566      10.740221     -0.0015709244   49569.213    
   1710000   0.039991046   -38.521878      0.059984242   -38.461894      0.1065973      0.0034517253  -0.025331696    427.82328      10.80415       10.742148      0.02823911     49653.077    
   1712000   0.040097355   -38.521279      0.0601437     -38.461136     -0.038980994   -0.041411191   -0.049716967    427.65807      10.807063      10.742129     -0.043369717    49647.197    
   1714000   0.039838613   -38.521231      0.059755602   -38.461475     -0.029688129    0.017082117   -0.011921459    427.50262      10.786234      10.73636      -0.0081758235   49506.898    
   1716000   0.039965014   -38.521098      0.059945196   -38.461153      0.015426059    0.03028304     0.046499303    427.66106      10.771063      10.746609      0.030736134    49502.795    
   1718000   0.040211905   -38.521952      0.060315519   -38.461637      0.051450663    0.035291253    0.010825391    428.0025       10.762402      10.752425      0.032522435    49529.273    
   1720000   0.040047912   -38.521782      0.060069538   -38.461713     -0.041078815    0.010127998    0.022417696    427.95051      10.75599       10.747282     -0.0028443736   49470.075    
   1722000   0.039818549   -38.521756      0.059725507   -38.46203      -0.0083935472   0.020969077   -0.046240217    427.6824       10.755483      10.736834     -0.011221562    49388.692    
   1724000   0.040226651   -38.522001      0.060337636   -38.461663      0.043846159    0.013233894    0.057307854    427.93183      10.769319      10.744079      0.038129302    49514.458    
   1726000   0.040244402   -38.520976      0.060364262   -38.460611      0.034792955    0.010602685    0.038647909    427.75496      10.796588      10.74178       0.028014516    49608.699    
   1728000   0.04002556    -38.521513      0.060036011   -38.461477      0.067308742   -0.0022648511   0.058578542    428.11393      10.810844      10.742328      0.041207478    49718.425    
   1730000   0.039917778   -38.521582      0.059874345   -38.461707     -0.050862796    0.0015693291  -0.042273464    428.02955      10.797804      10.750998     -0.03052231     49688.74     
   1732000   0.040591592   -38.521575      0.060885027   -38.46069       0.024663972   -0.027271902    0.018052976    427.95415      10.780874      10.743603      0.0051483485   49567.973    
   1734000   0.040334393   -38.522345      0.060499242   -38.461846     -0.0016943186   0.023662049   -0.020128827    427.73245      10.775475      10.751006      0.00061296763  49551.607    
   1736000   0.039974583   -38.521528      0.059959549   -38.461568     -0.017514658    0.068867027    0.0047671073   428.19397      10.763855      10.747612      0.018706492    49535.932    
   1738000   0.040368013   -38.521718      0.060549671   -38.461168      0.018036197   -0.0091364278   0.054776533    428.35115      10.758587      10.734473      0.021225434    49469.317    
   1740000   0.040122914   -38.521467      0.060182037   -38.461285      0.0061867561   0.026358487    0.012563867    428.47029      10.755537      10.75584       0.01503637     49567.517    
   1742000   0.039796235   -38.521659      0.059692036   -38.461967     -0.0092357615   0.00062769101  0.025238636    428.65481      10.750098      10.756338      0.0055435217   49566.082    
   1744000   0.040056273   -38.521492      0.060082079   -38.46141      -0.018564779   -0.010382804   -0.027014575    428.53416      10.759033      10.742161     -0.018654053    49527.95     
   1746000   0.040015885   -38.521878      0.0600215     -38.461857      0.0028258143   0.019450487    0.046312948    428.6132       10.77191       10.740704      0.022863083    49589.642    
   1748000   0.039893113   -38.522178      0.059837348   -38.462341      0.014171484    0.013704726   -0.0043403701   428.5393       10.773648      10.74396       0.0078452798   49604.126    
   1750000   0.040265615   -38.521989      0.06039608    -38.461593     -0.027705152   -0.0027540717  -0.014281932    428.55307      10.772845      10.749914     -0.014913719    49629.514    
   1752000   0.040455922   -38.522011      0.060681529   -38.461329     -0.010855391   -0.0011510128  -0.02535629     428.53279      10.765225      10.742438     -0.012454231    49557.574    
   1754000   0.04001389    -38.522325      0.060018507   -38.462306     -0.0082897469   0.02433899     0.032961318    428.78324      10.755115      10.742619      0.016336854    49540.804    
   1756000   0.04008604    -38.521171      0.060126728   -38.461044      0.027959907    0.025941598    0.020032604    429.14066      10.746792      10.751562      0.024644703    49584.973    
   1758000   0.03998429    -38.521311      0.059974108   -38.461337      0.019818265    0.042040632    0.04289275     429.07188      10.757751      10.743505      0.034917216    49590.39     
   1760000   0.040188775   -38.521307      0.060280824   -38.461026     -0.012107651    0.020588197    0.02993121     428.88163      10.768782      10.747049      0.012803918    49635.598    
   1762000   0.03961549    -38.521562      0.05942093    -38.462141      0.063470276    0.050721047   -0.026855671    428.75375      10.780348      10.750086      0.029111884    49688.13     
   1764000   0.039798323   -38.521527      0.059695168   -38.461832      0.010107418    0.028774719   -0.033468579    428.6386       10.78061       10.738825      0.0018045194   49623.957    
   1766000   0.039959886   -38.521407      0.059937504   -38.46147      -0.052081834   -0.045974895   -0.037131653    428.52697      10.778101      10.74895      -0.045062794    49646.25     
   1768000   0.040004363   -38.522615      0.060004216   -38.462611      0.051070064   -0.016991634    0.0039039529   428.29801      10.772963      10.74815       0.012660794    49592.378    
   1770000   0.039967475   -38.521995      0.059948887   -38.462046      0.059247074    0.0086697975  -0.012306259    428.50829      10.772476      10.741287      0.018536871    49582.805    
   1772000   0.040232316   -38.521537      0.060346133   -38.461191      0.016237659   -0.024508054   -0.02330885     428.66433      10.774209      10.749033     -0.010526415    49644.612    
   1774000   0.04016024    -38.521921      0.060238023   -38.461683      0.033160031    0.0025076047   0.021296351    428.55248      10.775208      10.744002      0.018987995    49613.03     
   1776000   0.040032875   -38.522018      0.060046983   -38.461971     -0.01965422     0.042973821    0.014683521    428.46544      10.762035      10.74643       0.012667707    49553.509    
   1778000   0.039951144   -38.522132      0.059924392   -38.462208      0.030100777   -0.0070083275  -0.013768652    428.60114      10.747813      10.755981      0.0031079324   49547.692    
   1780000   0.040050249   -38.521658      0.060073043   -38.461585      0.036787221   -0.0049565611   0.016851874    428.79445      10.737448      10.745332      0.016227511    49473.208    
   1782000   0.040189362   -38.522014      0.060281705   -38.461732     -0.023306122   -0.061935455    0.021365665    428.64069      10.737008      10.749109     -0.02129197     49470.822    
   1784000   0.039854616   -38.521489      0.059779605   -38.461709     -0.017525265   -0.029252062    0.011908348    428.6387       10.744686      10.745359     -0.011622993    49488.697    
   1786000   0.040315866   -38.521733      0.060471454   -38.461262     -0.0063220642  -0.015732717   -0.014728643    428.41419      10.75572       10.744158     -0.012261142    49508.038    
   1788000   0.040253601   -38.521634      0.060378059   -38.461256     -0.017931033    0.021616498    0.0055865389   428.3491       10.765442      10.748982      0.0030906678   49567.505    
   1790000   0.040126725   -38.522141      0.060187753   -38.461954     -0.04296443     0.030234225    0.040418094    428.44548      10.765803      10.741717      0.0092292965   49546.807    
   1792000   0.040146709   -38.521401      0.060217728   -38.461183      0.0053331166  -0.0091295072   0.028131558    428.3466       10.754871      10.738895      0.0081117225   49472.072    
   1794000   0.039918895   -38.521983      0.059876021   -38.462107      0.04014582    -0.0027721373  -0.00088699287  428.50516      10.749166      10.746437      0.01216223     49498.872    
   1796000   0.040087677   -38.522175      0.060129184   -38.462046      0.025135909   -0.025441253    0.023464872    428.36152      10.745503      10.751342      0.007719843    49488        
   1798000   0.040154389   -38.521952      0.060229248   -38.461723      0.0025891858   0.0040236535  -0.038882348    428.60657      10.746502      10.756282     -0.010756503    49543.663    
   1800000   0.040121039   -38.521216      0.060179224   -38.461036      0.057392858    0.018206522    0.036644413    428.65653      10.758356      10.7472        0.037414598    49562.212    
   1802000   0.03961425    -38.521841      0.059419071   -38.462422     -0.00399949     0.022828538    0.002549566    428.79683      10.77725       10.734262      0.0071262046   49605.716    
   1804000   0.039715644   -38.521172      0.059571155   -38.461601      0.0097324834   0.0035354684   0.026344914    428.44986      10.792523      10.743636      0.013204288    49679.164    
   1806000   0.040454879   -38.521965      0.060679965   -38.461285     -0.0038966259   0.0079730926  -0.045728886    428.23585      10.796483      10.746716     -0.01388414     49686.81     
   1808000   0.039889024   -38.521953      0.059831216   -38.462122     -0.065959028    0.0282205      0.0015281161   428.40361      10.784271      10.742909     -0.012070137    49632.461    
   1810000   0.039772644   -38.521688      0.059656652   -38.462032     -0.010579031    0.018211229    0.00031382701  428.54329      10.760255      10.746658      0.0026486748   49555.365    
   1812000   0.04004798    -38.521802      0.06006964    -38.461732      0.028647278    0.0073658932  -0.015870428    428.81353      10.741014      10.749925      0.0067142476   49512.997    
   1814000   0.040565347   -38.522181      0.06084566    -38.461335     -0.031528191   -0.044019197   -0.070665201    428.85518      10.726346      10.751973     -0.04873753     49459.601    
   1816000   0.039834339   -38.52132       0.059749191   -38.461571     -0.042557774    0.0031535229   0.011149866    428.7556       10.736746      10.74682      -0.0094181283   49472.339    
   1818000   0.039946183   -38.521549      0.05991695    -38.461632     -0.078019038   -0.029969615   -0.043382845    428.54177      10.753263      10.753873     -0.050457166    49556.238    
   1820000   0.039793888   -38.521822      0.059688517   -38.462134      0.05808411     0.0023439139  -0.041366321    428.15506      10.786571      10.744314      0.006353901    49620.735    
   1822000   0.039972113   -38.521593      0.059955844   -38.461637      0.039831241    0.036237677    0.023212642    427.99704      10.798125      10.741462      0.033093853    49642.372    
   1824000   0.039921804   -38.521534      0.059880383   -38.461654     -0.036175309    0.026972049    0.03703031     427.58773      10.79237       10.746235      0.0092756834   49590.488    
   1826000   0.039717976   -38.521402      0.059574654   -38.461828      0.051559827   -0.015136609   -0.025952852    427.51038      10.772504      10.758931      0.003490122    49548.725    
   1828000   0.040016619   -38.521398      0.0600226     -38.461375      0.063498251    0.010415246   -0.0049943211   427.74549      10.748081      10.752134      0.022973059    49432.322    
   1830000   0.04021538    -38.521504      0.06032073    -38.461183     -0.0043233205  -0.017595836    0.036809405    428.0416       10.732079      10.740694      0.0049634163   49340.345    
   1832000   0.039760222   -38.521784      0.05963802    -38.462146      0.010850301    0.018753595    0.010475697    427.85209      10.729069      10.755902      0.013359865    49374.48     
   1834000   0.040034301   -38.522111      0.060049123   -38.462062     -0.020195107   -0.0055649237   0.016301156    427.88358      10.742694      10.755929     -0.0031529583   49440.946    
   1836000   0.039813081   -38.522194      0.059717305   -38.462477     -0.010417448   -0.028674771   -0.027835089    428.00138      10.759039      10.743161     -0.022309103    49471.006    
   1838000   0.040186764   -38.521095      0.060277809   -38.460817      0.0081948835   0.0027176344   0.038424511    428.00801      10.772028      10.734774      0.016445676    49492.828    
   1840000   0.040155919   -38.521522      0.060231543   -38.461291     -0.070215015   -0.021111395   -0.010637606    428.17588      10.776143      10.750287     -0.033988005    49602.733    
   1842000   0.0400834     -38.522077      0.060122768   -38.461954     -0.019305679   -0.014188128    0.010680165    428.26888      10.770928      10.747955     -0.0076045474   49578.74     
   1844000   0.040123697   -38.521819      0.06018321    -38.461636      0.02973281     0.0063228211   0.012936976    428.13411      10.762731      10.735308      0.016330869    49467.142    
   1846000   0.039874482   -38.521677      0.059809403   -38.461868      0.13762358     0.067238747    0.045556324    428.03085      10.74526       10.747686      0.083472885    49431.865    
   1848000   0.039537338   -38.52217       0.059303706   -38.462867      0.0067760438  -0.01031695     0.038674856    428.19739      10.738014      10.75151       0.011711317    49435.33     
   1850000   0.040211819   -38.522048      0.060315388   -38.461733     -0.093829224   -0.023577962   -0.034262677    428.29135      10.735886      10.748066     -0.050556621    49420.542    
   1852000   0.039807876   -38.521517      0.059709498   -38.461807     -0.047276779   -0.018513006   -0.022078574    428.43287      10.752674      10.742648     -0.029289453    49489.223    
   1854000   0.039959539   -38.521973      0.059936983   -38.462036     -0.035084495    0.0094242822   0.0083850876   427.97365      10.781143      10.740071     -0.005758375    49555.17     
   1856000   0.040151317   -38.522105      0.06022464    -38.46188      -0.029078385    0.0079701263  -0.022320874    428.00007      10.795398      10.749842     -0.014476378    49668.904    
   1858000   0.039909556   -38.521316      0.059862012   -38.461454     -0.041303335    0.061348381    0.030841715    427.94464      10.792804      10.7474        0.016962254    49639.263    
   1860000   0.039907211   -38.521999      0.059858494   -38.462141     -0.043195988   -0.025757935    0.0044606723   427.94669      10.778222      10.748144     -0.02149775     49575.861    
   1862000   0.040386262   -38.521559      0.060577043   -38.460982      0.085645168   -0.041503401   -0.012599948    427.82267      10.761299      10.750205      0.01051394     49493.166    
   1864000   0.039817897   -38.522161      0.059724529   -38.462436     -0.039262128    0.031099708    0.047002264    427.88668      10.743248      10.745291      0.012946615    49394.954    
   1866000   0.040058315   -38.521161      0.060085142   -38.461076     -0.0018161172   0.032254063    0.02892447     427.95119      10.730461      10.753362      0.019787472    49380.661    
   1868000   0.039780658   -38.521759      0.059668673   -38.462091     -0.044112531    0.01026205    -0.036294499    427.91155      10.724861      10.750227     -0.02338166     49335.929    
   1870000   0.039797798   -38.522014      0.059694381   -38.46232      -0.033649538    0.023389979   -0.0064176824   427.68882      10.739619      10.748331     -0.0055590804   49369.394    
   1872000   0.039845255   -38.522305      0.059765564   -38.462539     -0.036740284   -0.0099952868   0.052521088    427.4202       10.76779       10.742287      0.0019285058   49439.987    
   1874000   0.040305626   -38.522168      0.060456094   -38.461712      0.01264995     0.066333111    0.030409031    427.18259      10.78865       10.748986      0.036464031    49539.106    
   1876000   0.040116116   -38.522003      0.06017184    -38.461831     -0.025476992   -0.019039794   -0.015441305    427.3724       10.791283      10.743787     -0.01998603     49549.233    
   1878000   0.04031888    -38.5217        0.060475975   -38.461224     -0.0069703381  -0.042748757   -0.034953913    427.49164      10.779918      10.746664     -0.028224336    49524.119    
   1880000   0.039781316   -38.521773      0.05966966    -38.462103     -0.053228194   -0.051155563   -0.016497769    427.65798      10.76163       10.747011     -0.040293842    49460.934    
   1882000   0.039854307   -38.521871      0.059779142   -38.462092      0.019361816    0.03275015     0.010306179    427.6221       10.746888      10.754339      0.020806048    49422.714    
   1884000   0.03995771    -38.522009      0.05993424    -38.462075      0.0055536762   0.022691733    0.015231419    427.70584      10.747584      10.743534      0.014492276    49385.923    
   1886000   0.039593861   -38.521193      0.059388488   -38.461804     -0.027353061   -0.044793728   -0.037425145    427.76756      10.766128      10.73819      -0.036523978    49453.666    
   1888000   0.040235846   -38.521591      0.060351428   -38.46124       0.0041551575  -0.02363094    -0.030342806    427.83617      10.782915      10.748392     -0.016606196    49585.781    
   1890000   0.040312964   -38.521642      0.0604671     -38.461175     -0.058014451   -0.015554839    0.036150513    427.77382      10.784022      10.740155     -0.012472926    49545.648    
   1892000   0.04025621    -38.521586      0.060381972   -38.461204      0.018880391   -0.0061949018  -0.042255761    427.73929      10.776283      10.741886     -0.0098567573   49514.073    
   1894000   0.039970921   -38.521605      0.059954055   -38.461651     -0.043999855    0.022234201    0.043921322    427.61417      10.774632      10.751221      0.0073852228   49535.016    
   1896000   0.040071142   -38.521435      0.060104381   -38.461331     -0.1026783     -0.032731264    0.03399934     427.96895      10.770526      10.737043     -0.033803408    49491.872    
   1898000   0.039962382   -38.522137      0.059941248   -38.462195     -0.046858473    0.013467659   -0.025559978    428.10216      10.765127      10.739407     -0.019650264    49493.353    
   1900000   0.039885755   -38.522214      0.059826312   -38.462387      0.0048836174   0.025787904   -0.028760702    428.03006      10.751218      10.753568      0.00063693977  49486.25     
   1902000   0.039993669   -38.521851      0.059988177   -38.461863      0.054567832    0.0048474308  -0.016693715    427.83381      10.735343      10.753017      0.014240516    49387.989    
   1904000   0.039808447   -38.521723      0.059710354   -38.462013     -0.043788543    0.018502364   -0.01553375     428.11474      10.725082      10.740648     -0.013606643    49316.392    
   1906000   0.040167508   -38.522456      0.060248925   -38.462207      0.027880408    0.051037153    0.075817153    427.98194      10.729853      10.744905      0.051578238    49342.574    
   1908000   0.039998626   -38.521359      0.059995611   -38.461364     -0.059932044   -0.047692326   -0.034195138    428.10428      10.756065      10.749596     -0.047273169    49498.853    
   1910000   0.0400194     -38.522205      0.060026772   -38.462178     -0.065028894   -0.025953143   -0.012561235    427.96795      10.77154       10.749435     -0.034514424    49553.541    
   1912000   0.040457294   -38.521903      0.060683587   -38.461219     -0.047461517   -0.0078694814  -0.041290941    428.1217       10.780264      10.748559     -0.032207313    49607.45     
   1914000   0.039907423   -38.521865      0.059858812   -38.462006     -0.035178391   -0.017794885    0.034103546    427.98712      10.783538      10.740472     -0.00628991     49569.592    
   1916000   0.040001953   -38.521492      0.060000602   -38.461491      0.0088412654   0.01700405    -0.026684015    428.27111      10.777689      10.744606     -0.0002795666   49594.662    
   1918000   0.040050496   -38.521308      0.060073413   -38.461234     -0.065342433   -0.021892143    0.021023054    428.17047      10.761432      10.751449     -0.022070507    49539.744    
   1920000   0.040234888   -38.522491      0.060349991   -38.462141      0.031810375    0.026680843    0.022897014    428.08431      10.737176      10.742972      0.027129411    49379.177    
   1922000   0.03983946    -38.521609      0.059756872   -38.461852      0.042178713    0.0027571013   0.019419301    428.06427      10.726725      10.746435      0.021451705    49344.702    
   1924000   0.039963578   -38.521662      0.059943041   -38.461719     -0.050177018   -0.015085073   -0.039118633    427.93574      10.733969      10.752878     -0.034793575    49392.795    
   1926000   0.039841346   -38.521742      0.059759702   -38.461982     -0.062920312   -0.012383823   -0.041323073    427.85442      10.751069      10.748642     -0.038875736    49442.597    
   1928000   0.039937283   -38.522176      0.059903601   -38.462272     -0.033168115   -0.0060775116  -0.014855267    428.02353      10.76603       10.742112     -0.018033631    49500.88     
   1930000   0.040050449   -38.521977      0.060073344   -38.461903     -0.045316616    0.018737523   -0.024924424    427.81086      10.766301      10.750838     -0.017167839    49517.721    
   1932000   0.039781831   -38.521752      0.059670432   -38.462082     -0.065172128    0.0024210768   0.023091785    427.68269      10.766419      10.746977     -0.013219755    49485.649    
   1934000   0.040282222   -38.521848      0.060420989   -38.461427     -0.004443589    0.0068084419   0.026874938    428.02872      10.767046      10.744547      0.0097465969   49517.375    
   1936000   0.039922316   -38.521793      0.059881151   -38.461911     -0.026801855   -0.0059014461   0.00098033001  427.94866      10.762352      10.741696     -0.010574324    49473.396    
   1938000   0.040367083   -38.521528      0.060548277   -38.460979      0.01236224     0.0057063757   0.028257396    427.86355      10.757457      10.750322      0.015442004    49480.763    
   1940000   0.039970669   -38.521529      0.059953678   -38.461576     -0.0037505146  -0.024822425    0.0023276827   427.80631      10.751016      10.750429     -0.0087484188   49445.011    
   1942000   0.039989838   -38.521769      0.05998243    -38.461787     -0.0032848216  -0.014287552    0.015473726    427.58281      10.764799      10.74518      -0.00069954904  49458.376    
   1944000   0.039525144   -38.521752      0.059285416   -38.462467     -0.0293495      0.080911189    0.019179126    427.35548      10.792132      10.750648      0.023580272    49582.814    
   1946000   0.040437917   -38.52196       0.060654523   -38.461306     -0.091046298    0.021482206   -0.025291642    427.36007      10.802014      10.742263     -0.031618578    49590.039    
   1948000   0.039855813   -38.521623      0.0597814     -38.461841     -0.038453978   -0.0047349429   0.040215204    427.20439      10.795435      10.740249     -0.00099123884  49532.496    
   1950000   0.039908033   -38.521638      0.059859728   -38.461778      0.015744399   -0.017101008   -0.026324189    426.98008      10.787489      10.751504     -0.0092269326   49521.891    
   1952000   0.03989921    -38.521487      0.059846494   -38.461641     -0.061044018   -0.039604473    0.0032599307   427.05138      10.772585      10.753416     -0.032462854    49470.524    
   1954000   0.040084962   -38.521604      0.060125111   -38.461479      0.0036650358   0.0071700859   0.0043535942   427.13075      10.759029      10.741659      0.0050629053   49363.423    
   1956000   0.03992544    -38.521747      0.059885837   -38.461861      0.0028784074  -0.013043847   -0.0098175493   427.17188      10.75014       10.752404     -0.0066609963   49376.732    
   1958000   0.040251815   -38.522131      0.060375381   -38.461756     -0.058059374   -0.006220585   -0.020452739    426.93598      10.741246      10.756944     -0.028244233    49329.454    
   1960000   0.040002768   -38.521332      0.060001825   -38.46133      -0.036597463    0.0017324925  -0.0095634603   426.76009      10.737899      10.745368     -0.014809477    49240.721    
   1962000   0.040056577   -38.521881      0.060082535   -38.461798     -0.035638236    0.021466715   -0.020289339    426.04043      10.745878      10.755253     -0.011486953    49239.465    
   1964000   0.039735619   -38.521522      0.059601116   -38.461921      0.042434077    0.021697307   -0.022032636    426.30741      10.760126      10.752763      0.014032916    49324.228    
   1966000   0.039945411   -38.522203      0.059915792   -38.462287      0.057535343   -0.007954677   -0.011005339    426.02972      10.774917      10.747906      0.012858442    49337.564    
   1968000   0.039924491   -38.522404      0.059884414   -38.46252      -0.11231213    -0.054771083   -0.040114726    426.49634      10.790887      10.752783     -0.069065981    49487.251    
   1970000   0.04023034    -38.521923      0.060343169   -38.46158       0.022901896    0.018607289   -0.0098800094   426.45761      10.788617      10.751061      0.010543059    49464.421    
   1972000   0.039898693   -38.52202       0.059845719   -38.462174      0.045332128   -0.018222414   -0.025911526    426.39505      10.774929      10.748299      0.00039939569  49381.733    
   1974000   0.039883484   -38.522369      0.059822906   -38.462546      0.054678708    0.054764136    0.093638962    426.44083      10.766076      10.749204      0.067693935    49350.611    
   1976000   0.039646489   -38.521885      0.059467427   -38.462417     -0.1162484     -0.016549374   -0.018291988    426.50228      10.763547      10.749258     -0.050363253    49346.376    
   1978000   0.039886309   -38.522355      0.059827143   -38.462527     -0.029539758   -0.015953596   -0.015458181    426.20218      10.766966      10.747358     -0.020317178    49318.599    
   1980000   0.040094245   -38.521886      0.060139034   -38.461747     -0.028967335   -0.0081291666  -0.0068171334   426.09471      10.766004      10.741292     -0.014637878    49273.928    
   1982000   0.039931151   -38.522172      0.059894404   -38.462278      0.021528544   -0.058862906    0.0063278941   425.96288      10.768533      10.744099     -0.01033549     49283.13     
   1984000   0.040071523   -38.521738      0.060104953   -38.461633      0.0034559227   0.010760453    0.029205988    426.05405      10.778089      10.751835      0.014474121    49372.951    
   1986000   0.04022554    -38.521803      0.060335969   -38.461467      0.049073011    0.0080077121   0.0019699945   426.2192       10.776923      10.741291      0.019683572    49338.313    
   1988000   0.040119411   -38.522103      0.060176782   -38.461926      0.0018584873   0.0036612775   0.0073747996   426.72017      10.765085      10.747767      0.0042981882   49371.792    
   1990000   0.040188766   -38.52213       0.060280811   -38.46185      -0.052929051    0.052785556    0.015498872    426.30972      10.749183      10.744474      0.0051184589   49236.351    
   1992000   0.040265664   -38.521921      0.060396153   -38.461524      0.066734187    0.024171502    0.011687883    426.55482      10.74029       10.759952      0.034197857    49294.811    
   1994000   0.040008041   -38.522164      0.060009734   -38.462154     -0.010842196   -0.012601944   -0.013067965    426.71584      10.742069      10.745706     -0.012170702    49256.289    
   1996000   0.039957258   -38.5221        0.059933563   -38.462166      0.010041568   -0.003842552   -0.014108527    426.53599      10.745203      10.748148     -0.0026365039   49261.083    
   1998000   0.040167998   -38.52248       0.06024966    -38.46223      -0.021930537   -0.025860187   -0.014143847    426.66319      10.744704      10.754646     -0.020644857    49303.273    
   2000000   0.03968695    -38.522121      0.059528116   -38.462593     -0.021111998    0.0025530018  -0.0055862268   426.77365      10.743447      10.748002     -0.0080484077   49279.802    
   2002000   0.039663821   -38.522235      0.059493424   -38.462741     -0.0014318337  -0.0073940824   0.033861354    426.71433      10.747511      10.745678      0.0083451458   49280.938    
   2004000   0.039578636   -38.521766      0.059365651   -38.4624        0.018004693    0.0082954683  -0.02295115     427.00805      10.76402       10.75135       0.0011163373   49416.682    
   2006000   0.039822174   -38.521801      0.059730944   -38.46207      -0.033719187    0.083197911    0.013844654    427.06366      10.776815      10.744078      0.021107793    49448.394    
   2008000   0.040186713   -38.522188      0.060277731   -38.461911      0.053009656   -0.0028525935   0.01049353     426.70857      10.785904      10.748359      0.020216864    49468.65     
   2010000   0.039719469   -38.521634      0.059576892   -38.462057      0.020307676    0.029814168    0.027191279    426.48941      10.794425      10.747682      0.025771041    49479.189    
   2012000   0.040071205   -38.522576      0.060104476   -38.462471     -0.074207808   -0.022295204    0.02144974     426.36719      10.785983      10.743453     -0.025017757    49406.875    
   2014000   0.040033248   -38.522273      0.060047542   -38.462226     -0.020035755   -0.048027582   -0.0050965584   426.40878      10.766953      10.737755     -0.024386632    49298.356    
   2016000   0.039894686   -38.521902      0.059839708   -38.462062      0.005605061   -0.034152985   -0.047502709    426.59372      10.754555      10.753047     -0.025350211    49333.106    
   2018000   0.039964406   -38.521619      0.059944284   -38.461675      0.0042770151   0.013283078   -0.0021843342   426.52266      10.744728      10.748398      0.0051252531   49258.51     
   2020000   0.04007975    -38.522096      0.060117294   -38.461979     -0.066299301    0.0074246058  -0.0081598806   426.10476      10.753665      10.755319     -0.022344859    49282.89     
   2022000   0.039966041   -38.522551      0.059946737   -38.462604     -0.10937758    -0.0674201     -0.0697137      425.90967      10.777796      10.753872     -0.082170459    49364.226    
   2024000   0.040085855   -38.521221      0.06012645    -38.461095     -0.045505208    0.013765217    0.043756468    426.18393      10.800907      10.739503      0.0040054923   49435.795    
   2026000   0.040334017   -38.52173       0.060498679   -38.461231     -0.0012449692  -0.054934159   -0.02487028     425.91562      10.806015      10.741907     -0.02701647     49439.098    
   2028000   0.040056513   -38.52146       0.060082438   -38.461378     -0.074497949   -0.080395941   -0.084955225    425.86447      10.797885      10.743102     -0.079949705    49401.46     
   2030000   0.040053707   -38.52186       0.06007823    -38.461782     -0.012891408    0.011551669   -0.010432263    425.66461      10.780477      10.75186      -0.003924001    49338.862    
   2032000   0.040037344   -38.52244       0.060053687   -38.462386     -0.038798401   -0.017638014   -0.0080595777   425.94503      10.754552      10.753037     -0.021498664    49258.029    
   2034000   0.040025767   -38.521901      0.060036321   -38.461865     -0.011299352   -0.025606323    0.052495493    426.22469      10.735109      10.741622      0.0051966059   49149.028    
   2036000   0.040222496   -38.522033      0.060331404   -38.461701      0.0030996123   0.070743496    0.045976046    426.32305      10.728983      10.745004      0.039939718    49147.788    
   2038000   0.039566436   -38.521724      0.059347352   -38.462377      0.076525387    0.013901212   -0.014612777    426.18696      10.742236      10.753874      0.025271274    49233.392    
   2040000   0.040123156   -38.522036      0.0601824     -38.461854     -0.04439363     0.022487624    0.027395056    426.4503       10.754168      10.747747      0.0018296833   49290.437    
   2042000   0.040316655   -38.522127      0.060472637   -38.461655      0.00095069286  0.027796236    0.047451352    426.46591      10.763665      10.753692      0.025399427    49363.06     
   2044000   0.039708851   -38.521802      0.059560967   -38.462241     -0.085161561   -0.01927726    -0.010987751    426.16366      10.763537      10.742751     -0.038475524    49277.303    
   2046000   0.040198435   -38.522547      0.060295314   -38.462251     -0.0098273243   0.026429461   -0.01752698     425.74447      10.75796       10.743843     -0.00030828103  49208.329    
   2048000   0.039924887   -38.521371      0.059885007   -38.461486      0.082080561   -0.018494596    0.0098758066   425.60679      10.756105      10.743355      0.024487257    49181.697    
   2050000   0.040163516   -38.521471      0.060242938   -38.461228     -0.044370828   -0.039510029   -0.013251793    425.62042      10.754558      10.75169      -0.03237755     49214.347    
   2052000   0.040120182   -38.522343      0.060177939   -38.462165      0.0029799727   0.0526308     -0.0011068941   425.72135      10.763214      10.746981      0.01816796     49244.064    
   2054000   0.040078821   -38.522025      0.0601159     -38.461909     -0.025841819   -0.029905476   -0.051859122    425.61159      10.771631      10.742667     -0.035868806    49250.091    
   2056000   0.039893666   -38.522008      0.059838178   -38.46217      -0.021768779   -0.026807332   -0.0023038292   425.66479      10.788711      10.742168     -0.01695998     49332.058    
   2058000   0.039895299   -38.522407      0.059840627   -38.462566      0.052094727    0.026698621    0.015929563    425.50155      10.801855      10.745649      0.031574304    49389.215    
   2060000   0.039886916   -38.52228       0.059828053   -38.462452      0.04767296     0.054151678   -0.0089622996   425.1055       10.79665       10.74423       0.030954113    49312.954    
   2062000   0.039931602   -38.52213       0.05989508    -38.462235      0.034168924    0.02877341     0.017169007    424.86239      10.773098      10.752855      0.02670378     49216.722    
   2064000   0.040180452   -38.522266      0.060268341   -38.461997      0.091477922    0.007924358   -0.016072594    424.88235      10.761967      10.74805       0.027776562    49146.207    
   2066000   0.040204548   -38.522169      0.060304483   -38.461865      0.03793442     0.061496443   -0.0038097492   424.93492      10.75058       10.748198      0.031873705    49100.958    
   2068000   0.039956083   -38.521973      0.0599318     -38.462041     -0.049483955    0.0015231025   0.0092216531   425.26544      10.750054      10.744765     -0.012913066    49121.054    
   2070000   0.040259861   -38.52183       0.060387449   -38.461442      0.039108196    0.0075017751   0.031297956    425.14655      10.754381      10.751173      0.025969309    49156.387    
   2072000   0.040030488   -38.522263      0.060043403   -38.46222      -0.061071869    0.0036289551   0.002468214    424.95764      10.751078      10.753022     -0.0183249      49127.898    
   2074000   0.040435543   -38.522         0.060650962   -38.461349     -0.076207662   -0.0060083433  -0.057928905    424.92362      10.759487      10.743711     -0.04671497     49119.818    
   2076000   0.04010119    -38.522408      0.060149451   -38.462259     -0.066054211    0.012929616   -0.00061219444  425.00009      10.764633      10.744976     -0.017912263    49157.947    
   2078000   0.040043124   -38.522376      0.060062356   -38.462313     -0.028593519    0.0004735453   0.028784155    424.73723      10.777971      10.752769      0.00022139392  49224.084    
   2080000   0.039680285   -38.522206      0.059518119   -38.462687      0.0030540349  -0.019897751    0.016295217    424.89656      10.795152      10.741612     -0.0001828332   49269.872    
   2082000   0.03983046    -38.522401      0.059743372   -38.462658     -0.048852776   -0.023910935   -0.055894666    425.03157      10.798982      10.740262     -0.042886126    49296.82     
   2084000   0.04008913    -38.522586      0.060131362   -38.462454     -0.027256956    0.0020406679   0.0041507419   424.98235      10.797317      10.744643     -0.0070218486   49303.609    
   2086000   0.040163712   -38.52196       0.060243231   -38.461716      0.049244728    0.04232832     0.043789415    425.14871      10.778804      10.751082      0.045120821    49267.85     
   2088000   0.039956404   -38.522871      0.059932281   -38.462939     -0.0050144053  -0.024097372   -0.034213663    425.44669      10.762003      10.749358     -0.02110848     49217.639    
   2090000   0.040360704   -38.522341      0.060538708   -38.461802      0.0013406194   0.01825944    -0.0068299086   425.27152      10.75491       10.749236      0.0042567169   49164.391    
   2092000   0.039914439   -38.522243      0.059869337   -38.462374     -0.080283782    0.0030799167   0.0039871037   425.3027       10.758013      10.754829     -0.024405587    49207.777    
   2094000   0.040366163   -38.522689      0.060546896   -38.462142     -0.082057542   -0.023312592   -0.00721297     425.28691      10.765387      10.743702     -0.037527701    49188.732    
   2096000   0.039715539   -38.522473      0.059570998   -38.462902     -0.0071889096   0.024059135   -0.021326957    424.79883      10.775144      10.748893     -0.0014855772   49200.571    
   2098000   0.040015301   -38.522731      0.060020623   -38.462711     -0.010696874   -0.03852731    -0.02443828     424.60802      10.789601      10.745627     -0.024554155    49229.491    
   2100000   0.039985327   -38.52237       0.059975664   -38.462394      0.036020835    0.016188166    0.0039815371   424.80515      10.799874      10.734884      0.018730179    49249.954    
   2102000   0.039995411   -38.522154      0.059990789   -38.462163      0.036903434    0.035783259   -0.061906647    425.08756      10.804751      10.753037      0.0035933486   49388.325    
   2104000   0.040057959   -38.522602      0.060084608   -38.462518      0.039679459    0.0048138959  -0.023012272    425.12078      10.799803      10.742764      0.0071603612   49322.4      
   2106000   0.040103259   -38.522759      0.060152555   -38.462606      0.006037746    0.044404163    0.041085032    425.20258      10.786339      10.744806      0.03050898     49279.757    
   2108000   0.040138278   -38.521618      0.060205081   -38.461412     -0.038983989   -0.02611888    -0.041759385    425.09601      10.769279      10.742586     -0.035620751    49179.318    
   2110000   0.039941193   -38.522442      0.059909466   -38.462532      0.056645221   -0.0013242901   0.053831655    425.13206      10.754177      10.745314      0.036384195    49126.985    
   2112000   0.040025281   -38.522372      0.060035592   -38.462337      0.0014576999   0.0018003118  -0.0089600471   425.44026      10.755789      10.758883     -0.0019006785   49232.062    
   2114000   0.04001118    -38.522102      0.060014442   -38.462088      0.029990629    0.021824422    0.0053881778   425.61657      10.75828       10.747342      0.019067743    49211.027    
   2116000   0.040377464   -38.522241      0.060563847   -38.461677     -0.057092348   -0.0046926332  -0.01551189     425.60384      10.778117      10.746719     -0.025765624    49297.436    
   2118000   0.039934427   -38.522517      0.059899317   -38.462618     -0.043683663    0.015193091   -0.012654509    425.75502      10.794557      10.749094     -0.013715027    49401.082    
   2120000   0.040118469   -38.522499      0.06017537    -38.462324     -0.002965595    0.052187764    0.011803806    425.87616      10.795138      10.739722      0.020341992    49374.71     
   2122000   0.040318062   -38.521688      0.060474747   -38.461213     -0.04598184    -0.046740047   -0.024410349    425.94508      10.786816      10.748739     -0.039044079    49386.058    
   2124000   0.040253357   -38.522016      0.060377693   -38.461639     -0.042353097    0.00097200983  0.018044247    426.14975      10.776504      10.7423       -0.0077789468   49332.987    
   2126000   0.039878015   -38.521995      0.059814703   -38.46218       0.029849905   -0.034906783   -0.038871014    425.93389      10.775626      10.755764     -0.014642631    49365.773    
   2128000   0.040137135   -38.522591      0.060203367   -38.462388     -0.050479522    0.036920493   -0.0012374817   426.3477       10.779213      10.743813     -0.0049321703   49375.265    
   2130000   0.040101268   -38.521987      0.060149568   -38.461837      0.0065903856  -0.0026624438   0.0079529136   426.15114      10.781525      10.744046      0.0039602852   49364.156    
   2132000   0.03994195    -38.522339      0.059910601   -38.462429      0.0048998851  -0.059644293    0.006422172    425.98207      10.780579      10.743743     -0.016107412    49338.849    
   2134000   0.040266827   -38.522589      0.060397897   -38.462191     -0.087754346    0.007133907   -0.025937185    425.95199      10.778144      10.74892      -0.035519208    49347.991    
   2136000   0.040237273   -38.52249       0.060353569   -38.462137      0.0062584616   0.017184941    0.033265746    426.25371      10.775321      10.750349      0.01890305     49376.577    
   2138000   0.039814626   -38.521631      0.059719623   -38.461911      0.045543402    0.010351847   -0.025779948    426.12977      10.78174       10.745059      0.010038434    49367.317    
   2140000   0.039991315   -38.522175      0.059984646   -38.462191     -0.044907929   -0.058827492   -0.019582811    425.88153      10.789072      10.741136     -0.041106077    49354.086    
   2142000   0.039689126   -38.522587      0.059531379   -38.463055     -0.035606059    0.012945469   -0.047688179    425.41561      10.797643      10.744343     -0.02344959     49353.986    
   2144000   0.039771086   -38.521822      0.059654314   -38.462168     -0.010585624   -0.021510156   -0.010355035    425.32017      10.796582      10.741439     -0.014150272    49324.729    
   2146000   0.040006672   -38.52237       0.060007681   -38.462363     -0.0021121829  -0.040922337   -0.027290211    425.35091      10.782559      10.751747     -0.023441577    49311.506    
   2148000   0.040449005   -38.522394      0.060671154   -38.461723     -0.041668564    0.014915903    0.021712308    425.68241      10.763662      10.747784     -0.0016801174   49245.291    
   2150000   0.040162049   -38.522336      0.060240737   -38.462096     -0.014721219    0.025204086    0.063000726    425.5978       10.756132      10.748086      0.024494531    49202.443    
   2152000   0.040112573   -38.523147      0.060166525   -38.462981     -0.0014571541   0.025874779    0.05225181     425.42632      10.764019      10.752542      0.025556478    49239.082    
   2154000   0.039996396   -38.522146      0.059992266   -38.462154      0.0034485339  -0.017393128   -0.020674026    425.55105      10.781211      10.739833     -0.01153954     49273.876    
   2156000   0.039856849   -38.522609      0.059782955   -38.462826      0.0020983164  -0.0071036828   0.012393411    425.59031      10.798063      10.74498       0.0024626816   49379.104    
   2158000   0.039894359   -38.521133      0.059839217   -38.461294      0.041169829   -0.016436825   -0.0091730687   425.50463      10.803283      10.745089      0.0051866449   49393.528    
   2160000   0.0401042     -38.521974      0.060153966   -38.46182      -0.0050023748   0.014143935    0.02407217     425.29764      10.800123      10.746366      0.011071243    49360.929    
   2162000   0.039813597   -38.522167      0.059718079   -38.462449     -0.092344519   -0.044883747   -0.010136917    425.48243      10.790321      10.747597     -0.049121728    49343.206    
   2164000   0.039825389   -38.522661      0.059735767   -38.462925      0.024869858   -0.028181836   -0.0086994164   425.65908      10.77058       10.74286      -0.0040037983   49251.663    
   2166000   0.039978751   -38.522649      0.0599658     -38.462683      0.055592012   -0.0037954943  -0.015552414    425.56268      10.757855      10.75418       0.012081368    49234.162    
   2168000   0.040009501   -38.521589      0.060011924   -38.461578      0.0011422495   0.037872253    0.013947265    425.84618      10.753741      10.746142      0.017653923    49211.305    
   2170000   0.039890849   -38.522146      0.059833953   -38.462312     -0.04945209    -0.021813665    0.0056826616   425.92496      10.751987      10.751195     -0.021861031    49235.522    
   2172000   0.039730062   -38.522669      0.059592782   -38.463076      0.057640467    0.017130675    0.049547904    425.84781      10.7634        10.749096      0.041439682    49269.237    
   2174000   0.040109187   -38.521731      0.060161447   -38.461569     -0.0072248276   1.5486618e-05 -0.024993695    425.78981      10.770598      10.739321     -0.010734345    49250.644    
   2176000   0.039925291   -38.521871      0.059885614   -38.461986      0.093406368   -0.0045788675   0.019052486    425.51481      10.782345      10.7462        0.035959995    49304.072    
   2178000   0.040053349   -38.522035      0.060077693   -38.461958     -0.036187883   -0.0084995496   0.030604708    425.12226      10.787333      10.748556     -0.0046942414   49292.182    
   2180000   0.03975935    -38.522031      0.059636711   -38.462394     -0.017315739   -0.024520307    0.029585945    425.18523      10.788435      10.73465      -0.0040833667   49240.733    
   2182000   0.040352791   -38.522506      0.060526838   -38.461979     -0.023653047    0.037517265   -0.027342661    425.58913      10.781706      10.748361     -0.0044928145   49319.678    
   2184000   0.039833792   -38.521898      0.05974837    -38.46215      -0.029522651    0.03350807    -0.0015903042   425.60289      10.776957      10.756732      0.00079837152  49337.946    
   2186000   0.03997674    -38.52248       0.059962783   -38.462517     -0.056355011   -0.035927419   -0.0034467802   425.97946      10.769555      10.744322     -0.031909737    49290.753    
   2188000   0.040247642   -38.522634      0.060369122   -38.462265     -0.010518455    0.010453337   -0.0068099788   426.09543      10.762912      10.742368     -0.0022916988   49264.794    
   2190000   0.040129183   -38.521982      0.06019144    -38.461791      0.0021962279  -0.028449561   -0.01967268     425.97107      10.756383      10.752259     -0.015308671    49265.861    
   2192000   0.040032085   -38.521431      0.060045798   -38.461385     -0.012468152    0.0012202732   0.013547327    425.98186      10.763714      10.745088      0.00076648277  49267.809    
   2194000   0.039771247   -38.522171      0.059654556   -38.462516     -0.023237031   -0.027217928    0.023921209    425.74434      10.77898       10.743708     -0.0088445832   49303.841    
   2196000   0.040038547   -38.522218      0.060055492   -38.462163      0.046205342   -0.012093736   -0.015042022    425.49447      10.790453      10.748784      0.0063565281   49350.654    
   2198000   0.039894953   -38.52222       0.059840109   -38.46238      -0.0039240743  -0.013397731   -0.0053447405   425.05909      10.799283      10.746042     -0.0075555153   49327.919    
   2200000   0.040079206   -38.521241      0.060116476   -38.461125     -0.026321043    0.0025391442  -0.037359866    425.33787      10.804846      10.73707      -0.020380588    49344.459    
   2202000   0.04010403    -38.5217        0.060153712   -38.461547     -0.027765985   -0.044548409   -0.03034818     425.16532      10.801478      10.743861     -0.034220858    49340.258    
   2204000   0.039977123   -38.521329      0.059963358   -38.461365     -0.095708726   -0.029641695   -0.032730698    425.34787      10.780568      10.751295     -0.052693706    49299.972    
   2206000   0.040160373   -38.5222        0.060238223   -38.461962     -0.013153409   -0.048512199   -0.068771629    425.30304      10.754694      10.743123     -0.043479079    49139.089    
   2208000   0.039978028   -38.521827      0.059964715   -38.461863      0.078852264    0.051268755    0.063165577    425.24528      10.749195      10.749671      0.064428865    49137.221    
   2210000   0.039980192   -38.522735      0.059967961   -38.462767      0.0085196844   0.015420582   -0.025495966    425.09267      10.757657      10.760249     -0.00051856632  49206.636    
   2212000   0.040080738   -38.522647      0.060118775   -38.462529      0.029413678    0.0029043173   0.019514238    425.00928      10.769097      10.749524      0.017277411    49200.208    
   2214000   0.039798339   -38.522506      0.059695193   -38.462811      0.014491727    0.026319361    0.0036319486   425.10451      10.777339      10.741067      0.014814345    49210.148    
   2216000   0.040183233   -38.522203      0.060272511   -38.46193       0.059913235    0.024500694    0.071529984    424.84303      10.790017      10.749102      0.051981304    49274.568    
   2218000   0.040206997   -38.522206      0.060308157   -38.461898      0.034314675   -0.005138642   -0.031707248    424.79519      10.799277      10.74419      -0.00084373838  49288.767    
   2220000   0.040151224   -38.522042      0.0602245     -38.461817      0.015156248    0.034507392   -0.036977923    424.63487      10.808368      10.746457      0.0042285723   49322.046    
   2222000   0.039764268   -38.522595      0.059644088   -38.462951     -0.064517573   -0.010112718   -0.046390566    424.83226      10.819414      10.743342     -0.040340286    49381.083    
   2224000   0.039993404   -38.521796      0.059987779   -38.461808      0.012846757    0.033052407    0.048990932    424.88294      10.810017      10.741986      0.031630032    49337.854    
   2226000   0.040229181   -38.521845      0.060341431   -38.461503      0.033398615    0.042247671    0.053258553    424.93469      10.785414      10.751191      0.04296828     49273.746    
   2228000   0.040239473   -38.5216        0.060356869   -38.461243     -0.00036307122 -0.0051240285  -0.0048893098   425.20873      10.762085      10.756489     -0.0034588032   49223.116    
   2230000   0.039836407   -38.522401      0.059752293   -38.462649      0.0064418078  -0.024455254   -0.051810396    425.59638      10.751994      10.746707     -0.023274614    49177.034    
   2232000   0.039710325   -38.521646      0.059563177   -38.462083     -0.059888964    0.0089494768   0.006627344    425.81889      10.75755       10.74686      -0.014770714    49228.873    
   2234000   0.040386799   -38.522142      0.060577848   -38.461564     -0.055812324    0.029180016   -0.016567678    425.8503       10.769528      10.745619     -0.014399995    49281.63     
   2236000   0.040307823   -38.522217      0.06045939    -38.461758     -0.046251848    0.031354679   -0.008219865    425.7728       10.780105      10.737987     -0.0077056782   49286.024    
   2238000   0.03935771    -38.52255       0.059034275   -38.463516     -0.023998471    0.019662854    0.03390348     425.58274      10.781126      10.748355      0.0098559545   49316.261    
   2240000   0.039830739   -38.521814      0.059743791   -38.46207       0.090479971    0.053130419    0.039652508    425.68345      10.784128      10.752386      0.061087633    49360.167    
   2242000   0.039702064   -38.521351      0.059550786   -38.4618       -0.08711797    -0.064169917   -0.030182454    425.56146      10.792128      10.741061     -0.060490114    49330.62     
   2244000   0.039863574   -38.522243      0.059793041   -38.46245       0.04413258     0.0058949937  -0.04738815     425.22149      10.7955        10.753218      0.00087980768  49362.42     
   2246000   0.040006283   -38.522568      0.060007097   -38.46256       0.032625821   -0.016879821   -0.012558071    425.22119      10.789619      10.750153      0.0010626432   49321.431    
   2248000   0.040179228   -38.52271       0.060266504   -38.462443      0.013936348   -0.033656439   -0.0010386057   425.47809      10.77736       10.737224     -0.0069195656   49235.866    
   2250000   0.039937134   -38.522431      0.059903377   -38.462528      0.029550942   -0.041080293    0.032453449    425.26405      10.762681      10.749834      0.0069746995   49201.791    
   2252000   0.040180949   -38.522725      0.060269085   -38.462455     -0.023375079    0.0077103409  -0.013098163    425.20664      10.759204      10.746214     -0.0095876339   49162.692    
   2254000   0.040243957   -38.522719      0.060363595   -38.462355     -0.053537922   -0.0076347562   0.017307002    425.20018      10.770464      10.745976     -0.014621892    49212.305    
   2256000   0.039787287   -38.523213      0.059678615   -38.463534      0.022898026    0.036473112   -0.0029268711   425.13984      10.780736      10.745748      0.018814756    49251.205    
   2258000   0.040066101   -38.522685      0.060096821   -38.462588      0.074649921    0.047788056    0.036035074    424.98498      10.795603      10.740907      0.05282435     49278.951    
   2260000   0.039912803   -38.522383      0.059866882   -38.462516     -0.03246861    -0.041611793   -0.015389778    424.98554      10.810249      10.742982     -0.029823394    49355.405    
   2262000   0.040009578   -38.522508      0.060012039   -38.462496     -0.072557297   -0.0099882255  -0.010444081    424.72532      10.81907       10.7471       -0.030996535    49384.354    
   2264000   0.039695481   -38.522266      0.059540912   -38.462726     -0.037812321    0.044257778    0.014894713    424.73718      10.819195      10.743364      0.0071133899   49369.133    
   2266000   0.040220544   -38.522473      0.060328476   -38.462145      0.0027566445   0.001977512    0.0074280944   425.34072      10.800819      10.744652      0.0040540836   49361.233    
   2268000   0.040298463   -38.522058      0.060445351   -38.461612      0.079113059   -0.028188131    0.0071161486   425.08724      10.782486      10.751123      0.019347026    49277.743    
   2270000   0.039386071   -38.522543      0.059076815   -38.463467      0.011849044    0.050396409   -0.0080736772   425.1253       10.777226      10.745655      0.018057259    49233.057    
   2272000   0.039891668   -38.522231      0.059835181   -38.462396      0.032133209    0.00084375719  0.015995172    425.12407      10.777719      10.745749      0.016324046    49235.603    
   2274000   0.040076216   -38.522764      0.060111993   -38.462652     -0.075608608   -0.016835992   -0.02858472     425.13353      10.776835      10.755177     -0.040343106    49275.856    
   2276000   0.040109443   -38.522701      0.06016183    -38.462539     -0.014214303    0.037584203    0.018026541    425.15927      10.771843      10.745052      0.013798814    49209.638    
   2278000   0.039918017   -38.522156      0.059874703   -38.462281      0.029418934    0.026605858   -0.040082775    425.12138      10.775521      10.73893       0.0053140058   49194.011    
   2280000   0.039999795   -38.52175       0.059997364   -38.461753      0.071139554    0.018253893    0.017784319    425.05397      10.792329      10.75189       0.035725922    49322.382    
   2282000   0.039937545   -38.522082      0.059903994   -38.462178      0.083229733    0.026868761    0.031702123    424.76771      10.810395      10.755934      0.047266872    49390.248    
   2284000   0.039952769   -38.522559      0.059926829   -38.462633     -0.035171372   -0.04294461     0.01153725     425.14358      10.815379      10.742543     -0.022192911    49395.17     
   2286000   0.039609351   -38.522243      0.059411722   -38.462831      0.05278031    -0.010124265   -0.0039142468   424.94824      10.801146      10.746859      0.012913933    49327.31     
   2288000   0.03974893    -38.522428      0.059621082   -38.462807     -0.047497155    0.024985604    0.033519975    425.27769      10.775839      10.747031      0.0036694745   49250.678    
   2290000   0.039943724   -38.522532      0.059913261   -38.462619     -0.054386346   -0.051272079   -0.0495469      425.35708      10.760325      10.74437      -0.051735108    49176.769    
   2292000   0.03981447    -38.521716      0.059719389   -38.461997      0.014653621    0.0078280101   0.0051075317   425.39564      10.761462      10.747248      0.0091963874   49199.602    
   2294000   0.039956734   -38.522749      0.059932776   -38.462816     -0.018206963   -0.011583646   -0.016121547    425.16769      10.770762      10.744698     -0.015304052    49204.055    
   2296000   0.040252384   -38.523054      0.060376234   -38.462678     -0.050170272   -0.03976099    -0.033389078    425.05845      10.783797      10.735294     -0.04110678     49207.836    
   2298000   0.039949807   -38.522124      0.059922385   -38.462202     -0.032332329    0.0073437292   0.0063707101   424.79915      10.810414      10.745335     -0.0062059632   49345.315    
   2300000   0.040026793   -38.521772      0.06003786    -38.461734      0.0026549984   0.0063296326   0.011341136    424.68844      10.813991      10.750316      0.0067752555   49371.656    
Loop time of 21234.1 on 1 procs for 2000000 steps with 25781 atoms

Performance: 8137.863 tau/day, 94.188 timesteps/s, 2.428 Matom-step/s
100.0% CPU use with 1 MPI tasks x 1 OpenMP threads

MPI task timing breakdown:
Section |  min time  |  avg time  |  max time  |%varavg| %total
---------------------------------------------------------------
Pair    | 18118      | 18118      | 18118      |   0.0 | 85.33
Neigh   | 163.97     | 163.97     | 163.97     |   0.0 |  0.77
Comm    | 515.22     | 515.22     | 515.22     |   0.0 |  2.43
Output  | 2.0774     | 2.0774     | 2.0774     |   0.0 |  0.01
Modify  | 2145.7     | 2145.7     | 2145.7     |   0.0 | 10.11
Other   |            | 289        |            |       |  1.36

Nlocal:          25781 ave       25781 max       25781 min
Histogram: 1 0 0 0 0 0 0 0 0 0
Nghost:          39939 ave       39939 max       39939 min
Histogram: 1 0 0 0 0 0 0 0 0 0
Neighs:         416501 ave      416501 max      416501 min
Histogram: 1 0 0 0 0 0 0 0 0 0

Total # of neighbors = 416501
Ave neighs/atom = 16.155347
Neighbor list builds = 5868
Dangerous builds = 0
#next a
#jump s_hydro2 loop
unfix           1
############turn on Hbond in soft segments###################
pair_coeff      7 8 10.0 ${k2} 1.2 0.79 1.0 2.8 #1 strong bond/2.2 attraction
pair_coeff      7 8 10.0 0.890898718140339 1.2 0.79 1.0 2.8 

#pair_coeff      7 7 0.25 $s  1.0 1 0 2.8 #1.8 only repulsion
#pair_coeff      8 8 0.25 $s  1.0 1 0 2.8 #1.8 only repulsion

#pair_coeff      5 7 0.10 ${s8} 1.2 1 0.0 2.8 # 2.0 attraction
#pair_coeff      5 8 0.10 ${s8} 1.2 1 0.0 2.8 # 2.0 attraction


pair_modify     tail no
pair_modify     shift yes
neighbor        0.5 bin
neigh_modify    every 1 delay 0 check yes


#################P change into 1######################
variable        pressurenow equal press
#fix             1 all npt temp ${tf} ${tf} 0.01 iso ${pressurenow} 1 10
fix             1 all npt temp ${tf} ${tf} 0.01 x 0.0 0.0 5.0 y ${pressurenow} 1 10 z ${pressurenow} 1 10
fix             1 all npt temp 0.04 ${tf} 0.01 x 0.0 0.0 5.0 y ${pressurenow} 1 10 z ${pressurenow} 1 10
fix             1 all npt temp 0.04 0.04 0.01 x 0.0 0.0 5.0 y ${pressurenow} 1 10 z ${pressurenow} 1 10
fix             1 all npt temp 0.04 0.04 0.01 x 0.0 0.0 5.0 y 0.00677525554394155 1 10 z ${pressurenow} 1 10
fix             1 all npt temp 0.04 0.04 0.01 x 0.0 0.0 5.0 y 0.00677525554394155 1 10 z 0.00677525554394155 1 10
run             100000
Generated 0 of 36 mixed pair_coeff terms from geometric mixing rule
Per MPI rank memory allocation (min/avg/max) = 22.77 | 22.77 | 22.77 Mbytes
   Step          Temp          PotEng         KinEng         TotEng          Pxx            Pyy            Pzz             Lx             Ly             Lz           Press          Volume    
   2300000   0.040026793   -36.245763      0.06003786    -36.185725      0.32118856     0.82011773     0.79846971     424.68844      10.813991      10.750316      0.646592       49371.656    
   2302000   0.040081203   -36.559776      0.060119473   -36.499656      0.035719801    0.040912884    0.045932419    431.9238       10.922795      10.849564      0.040855035    51186.239    
   2304000   0.040258648   -36.555362      0.060385629   -36.494976     -0.055681674    0.052666403    0.02892729     434.84197      10.910194      10.825335      0.0086373398   51357.664    
   2306000   0.040102021   -36.552997      0.060150698   -36.492846     -0.0079259697   0.031324304    0.010573757    436.42896      10.83093       10.751976      0.01132403     50823.856    
   2308000   0.039963838   -36.552388      0.059943432   -36.492444      0.037968061    0.029331375    0.068043513    437.95093      10.729092      10.668881      0.045114316    50131.11     
   2310000   0.039514939   -36.551541      0.05927011    -36.492271      0.037103267    0.071724949    0.026620884    439.46911      10.596096      10.602975      0.0451497      49374.414    
   2312000   0.04010855    -36.552993      0.060160492   -36.492833     -0.025595677    0.075836981    0.070375574    440.94588      10.457718      10.472151      0.040205626    48290.101    
   2314000   0.040407102   -36.553873      0.060608302   -36.493265     -0.041481027    0.043829202    0.070889413    442.7059       10.320404      10.345234      0.024412529    47266.377    
   2316000   0.040422744   -36.554814      0.060631764   -36.494183      0.013134742    0.06968694     0.057652859    445.46631      10.178225      10.218622      0.046824847    46331.805    
   2318000   0.040060166   -36.556149      0.060087918   -36.496062      0.05360365     0.090635974    0.11584129     447.95444      10.030967      10.073728      0.086693638    45265.454    
   2320000   0.040206287   -36.557944      0.060307092   -36.497637      0.057011105    0.070622086    0.088139408    451.03128      9.8786628      9.9311399      0.0719242      44249.048    
   2322000   0.040261994   -36.559244      0.060390649   -36.498853     -0.020417243    0.094551926    0.085319574    454.62716      9.7277939      9.7974474      0.053151419    43329.401    
   2324000   0.040055618   -36.56058       0.060081096   -36.500499      0.0057015527   0.091125816    0.15566674     458.18415      9.5826019      9.674792       0.084164702    42478.106    
   2326000   0.040450542   -36.560116      0.06067346    -36.499442     -0.17402158     0.066395399    0.10294021     462.06719      9.4448901      9.5604115     -0.0015619908   41723.298    
   2328000   0.039927456   -36.560247      0.059888861   -36.500358     -0.088455412    0.12114812     0.21311118     465.44161      9.3119026      9.4601753      0.081934629    41001.789    
   2330000   0.040103208   -36.559645      0.060152479   -36.499493     -0.026752415    0.20132194     0.27118815     469.28678      9.1956193      9.3738776      0.14858589     40451.868    
   2332000   0.040005748   -36.55951       0.060006294   -36.499503     -0.16917892     0.19279766     0.25270079     472.96689      9.091411       9.298624       0.092106508    39983.492    
   2334000   0.039822128   -36.557104      0.059730875   -36.497373     -0.11359643     0.22679216     0.27429173     475.62796      9.0023183      9.2268409      0.12916249     39507.066    
   2336000   0.040316406   -36.55694       0.060472264   -36.496468     -0.20883295     0.26581815     0.292741       478.28328      8.9325451      9.1655541      0.1165754      39157.877    
   2338000   0.04007785    -36.555579      0.060114444   -36.495464     -0.11710889     0.31498494     0.3203246      480.30011      8.8789093      9.1091486      0.17273355     38846.339    
   2340000   0.039816203   -36.552828      0.059721988   -36.493106     -0.23595804     0.35021218     0.36827751     482.63451      8.8323525      9.0652027      0.16084388     38643.129    
   2342000   0.040095374   -36.551947      0.060140728   -36.491807     -0.13343583     0.41754514     0.37933181     484.67849      8.7971888      9.0251371      0.22114704     38481.454    
   2344000   0.039610351   -36.549683      0.059413222   -36.49027      -0.18723665     0.47514539     0.44388286     486.45321      8.7634214      8.9918687      0.24393053     38332.287    
   2346000   0.039747415   -36.548789      0.05961881    -36.48917      -0.22595879     0.40703119     0.34491097     488.15767      8.7444033      8.9542412      0.17532779     38222.5      
   2348000   0.040030028   -36.546875      0.060042714   -36.486832     -0.19626954     0.52590732     0.50343281     489.38295      8.7290528      8.9121371      0.2776902      38071.309    
   2350000   0.040113825   -36.545739      0.060168404   -36.485571     -0.21261948     0.56043897     0.53232398     490.64055      8.7161189      8.8742682      0.29338116     37950.642    
   2352000   0.039745435   -36.544836      0.05961584    -36.48522      -0.20123442     0.48846915     0.47000632     491.4136       8.7017301      8.8484297      0.25241368     37837.199    
   2354000   0.040323574   -36.542775      0.060483015   -36.482292     -0.31200101     0.50289212     0.49959894     492.51757      8.6879523      8.8329131      0.23016335     37795.763    
   2356000   0.039788068   -36.540809      0.059679787   -36.481129     -0.26080914     0.53423484     0.55983192     493.13371      8.6688965      8.8115785      0.27775254     37668.838    
   2358000   0.040011215   -36.538705      0.060014495   -36.478691     -0.27859584     0.49509613     0.55320198     494.01999      8.6511156      8.7947367      0.25656742     37587.157    
   2360000   0.040336689   -36.538117      0.060502687   -36.477615     -0.28042999     0.57965871     0.57309245     494.69938      8.6294579      8.774146       0.29077372     37456.719    
   2362000   0.039716364   -36.536135      0.059572235   -36.476563     -0.22370293     0.53649366     0.62287423     495.35945      8.611787       8.75007        0.31188832     37327.187    
   2364000   0.040005929   -36.534674      0.060006566   -36.474667     -0.41597994     0.58124843     0.60893019     495.9382       8.598516       8.7290804      0.25806623     37223.702    
   2366000   0.040142476   -36.534023      0.060211379   -36.473812     -0.45018831     0.6675453      0.59621745     496.56203      8.5855345      8.7102581      0.27119148     37134.011    
   2368000   0.039872306   -36.532273      0.05980614    -36.472467     -0.38610426     0.65656669     0.6617694      496.96704      8.5718703      8.6893768      0.31074394     37016.198    
   2370000   0.039822157   -36.531094      0.059730918   -36.471363     -0.32982896     0.66915121     0.67665313     497.54677      8.5554919      8.6660295      0.33865846     36889.185    
   2372000   0.039829817   -36.529237      0.059742409   -36.469494     -0.35140084     0.68139414     0.69004163     498.3895       8.5566288      8.6321335      0.34001165     36812.026    
   2374000   0.040112072   -36.528324      0.060165774   -36.468158     -0.38248427     0.69825983     0.71077691     498.78248      8.5535372      8.6097038      0.34218416     36732.049    
   2376000   0.039798316   -36.527605      0.059695159   -36.46791      -0.42813969     0.69492384     0.73640201     499.27569      8.5494706      8.5919937      0.33439539     36675.293    
   2378000   0.039798797   -36.526507      0.05969588    -36.466811     -0.38009132     0.80527375     0.73910403     499.62374      8.5419331      8.5720535      0.38809549     36583.404    
   2380000   0.039825182   -36.524783      0.059735455   -36.465047     -0.3917711      0.76129302     0.76261438     500.00074      8.5367043      8.5548445      0.37737877     36515.143    
   2382000   0.039905859   -36.522441      0.059856466   -36.462584     -0.50254882     0.72329394     0.77658127     500.21581      8.5266526      8.5367694      0.33244213     36410.742    
   2384000   0.039759737   -36.521651      0.059637292   -36.462014     -0.47761006     0.84444926     0.77598293     500.4663       8.5207196      8.5293656      0.38094071     36372.055    
   2386000   0.039907573   -36.519818      0.059859037   -36.459959     -0.57373447     0.76719555     0.81947874     500.76302      8.5169256      8.5171329      0.33764661     36325.243    
   2388000   0.039889464   -36.518686      0.059831876   -36.458854     -0.46051168     0.86369744     0.78077927     500.9627       8.5141712      8.5044497      0.39465501     36273.877    
   2390000   0.040231488   -36.515744      0.060344892   -36.455399     -0.56928707     0.88399962     0.88496796     501.0936       8.5092753      8.4888355      0.39989351     36195.914    
   2392000   0.040179159   -36.514547      0.060266401   -36.454281     -0.6514843      0.90886943     0.9166407      501.61108      8.5052218      8.4796626      0.39134194     36176.899    
   2394000   0.040131886   -36.513271      0.060195494   -36.453076     -0.49095735     0.86136645     0.92099938     501.70675      8.4954897      8.4773737      0.4304695      36132.64     
   2396000   0.040462927   -36.511299      0.060692037   -36.450607     -0.63036487     0.86828676     0.90353635     502.03817      8.4898633      8.4741187      0.38048608     36118.689    
   2398000   0.040017781   -36.508241      0.060024343   -36.448217     -0.60316809     0.9021684      0.93820622     502.36093      8.4846045      8.4625924      0.41240218     36070.394    
   2400000   0.040012169   -36.506507      0.060015926   -36.446491     -0.65203103     0.87657693     0.93250977     502.54585      8.4720902      8.4590626      0.38568523     36015.421    
Loop time of 1039.85 on 1 procs for 100000 steps with 25781 atoms

Performance: 8308.905 tau/day, 96.168 timesteps/s, 2.479 Matom-step/s
100.0% CPU use with 1 MPI tasks x 1 OpenMP threads

MPI task timing breakdown:
Section |  min time  |  avg time  |  max time  |%varavg| %total
---------------------------------------------------------------
Pair    | 894.78     | 894.78     | 894.78     |   0.0 | 86.05
Neigh   | 26.916     | 26.916     | 26.916     |   0.0 |  2.59
Comm    | 23.191     | 23.191     | 23.191     |   0.0 |  2.23
Output  | 0.08688    | 0.08688    | 0.08688    |   0.0 |  0.01
Modify  | 83.238     | 83.238     | 83.238     |   0.0 |  8.00
Other   |            | 11.63      |            |       |  1.12

Nlocal:          25781 ave       25781 max       25781 min
Histogram: 1 0 0 0 0 0 0 0 0 0
Nghost:          56747 ave       56747 max       56747 min
Histogram: 1 0 0 0 0 0 0 0 0 0
Neighs:         478738 ave      478738 max      478738 min
Histogram: 1 0 0 0 0 0 0 0 0 0

Total # of neighbors = 478738
Ave neighs/atom = 18.569412
Neighbor list builds = 899
Dangerous builds = 0
unfix           1
################the second compression at high P (P = 1)##############
#fix		1 all npt temp ${tf} ${tf} 0.01 iso 1 1 10
fix             1 all npt temp ${tf} ${tf} 0.01 x 0.0 0.0 5.0 y 1 1 10 z 1 1 10
fix             1 all npt temp 0.04 ${tf} 0.01 x 0.0 0.0 5.0 y 1 1 10 z 1 1 10
fix             1 all npt temp 0.04 0.04 0.01 x 0.0 0.0 5.0 y 1 1 10 z 1 1 10
run		300000
Generated 0 of 36 mixed pair_coeff terms from geometric mixing rule
Per MPI rank memory allocation (min/avg/max) = 26.11 | 26.11 | 26.11 Mbytes
   Step          Temp          PotEng         KinEng         TotEng          Pxx            Pyy            Pzz             Lx             Ly             Lz           Press          Volume    
   2400000   0.040012169   -36.506507      0.060015926   -36.446491     -0.65203103     0.87657693     0.93250977     502.54585      8.4720902      8.4590626      0.38568523     36015.421    
   2402000   0.040139162   -36.515867      0.060206408   -36.455661      0.15726737     1.0977882      1.0657373      495.50849      8.4763735      8.4679547      0.77359763     35566.384    
   2404000   0.039937511   -36.516499      0.059903942   -36.456595      0.11068688     1.0537714      1.0083105      494.69754      8.467439       8.4723523      0.72425628     35489.169    
   2406000   0.039888952   -36.516327      0.059831107   -36.456496      0.11544191     1.0526092      1.100729       494.25443      8.4723741      8.4649001      0.75626004     35446.841    
   2408000   0.03986095    -36.517533      0.059789106   -36.457744      0.017138088    0.94585596     1.0139988      493.61985      8.4680486      8.4684018      0.65899763     35397.893    
   2410000   0.039857016   -36.515593      0.059783206   -36.455809      0.061944392    1.0047252      1.0604869      493.51744      8.4675208      8.461345       0.70905215     35358.854    
   2412000   0.04022869    -36.515556      0.060340694   -36.455216      0.051530332    1.0361981      0.99661926     493.30431      8.4610314      8.4657116      0.69478258     35334.723    
   2414000   0.040056775   -36.516213      0.060082831   -36.45613       0.066659808    0.97318104     0.95845174     493.29983      8.4659292      8.4593682      0.66609753     35328.364    
   2416000   0.039851115   -36.514545      0.059774354   -36.454771      0.073383797    0.9945001      1.0147177      493.16354      8.4653063      8.456489       0.69420054     35303.985    
   2418000   0.040041373   -36.515201      0.06005973    -36.455141     -0.013361636    1.0174933      1.0141796      493.13543      8.4648049      8.4574429      0.67277042     35303.863    
   2420000   0.040002074   -36.514698      0.060000783   -36.454697      0.087618231    1.0153613      0.97512021     492.97969      8.4657214      8.4559037      0.69269991     35290.111    
   2422000   0.040052807   -36.514988      0.060076881   -36.454911     -0.029129092    1.0037993      0.98288486     492.85113      8.4639758      8.4577999      0.65251834     35281.544    
   2424000   0.039807901   -36.515862      0.059709536   -36.456153     -0.070949008    0.97412264     1.0036977      492.72338      8.4614611      8.460444       0.63562378     35272.943    
   2426000   0.040238899   -36.515562      0.060356007   -36.455206     -0.059794318    1.0388368      0.97743424     492.48768      8.4653025      8.4572913      0.6521589      35258.931    
   2428000   0.039929768   -36.515784      0.059892328   -36.455892      0.12468511     1.0089676      1.0462227      492.3785       8.4650491      8.4558016      0.72662514     35243.85     
   2430000   0.04005836    -36.515262      0.060085209   -36.455177     -0.013552512    0.99307811     1.0162379      492.20068      8.4601199      8.4574331      0.6652545      35217.401    
   2432000   0.040161085   -36.515775      0.060239291   -36.455535      0.12192695     1.0170082      1.0307405      492.26959      8.4586138      8.4586016      0.72322523     35220.926    
   2434000   0.0396022     -36.514975      0.059400995   -36.455574      0.018851047    0.9343652      0.97416818     492.32699      8.4603766      8.4550401      0.64246147     35217.54     
   2436000   0.039992981   -36.51545       0.059987145   -36.455463     -0.011984588    0.98166229     1.0169454      492.1209       8.4619404      8.4531496      0.6622077      35201.431    
   2438000   0.039804904   -36.515196      0.05970504    -36.455491      0.065111631    1.0673354      1.1039371      492.28178      8.4582531      8.4572218      0.74546137     35214.551    
   2440000   0.039812711   -36.514958      0.05971675    -36.455241     -0.033079167    1.0466531      0.95655426     492.21098      8.4609931      8.4542247      0.65670939     35208.411    
   2442000   0.039808703   -36.515675      0.059710739   -36.455965      0.022655917    1.0142795      0.97361667     492.36049      8.4585117      8.4579588      0.67018403     35224.328    
   2444000   0.039699788   -36.514404      0.059547372   -36.454856      0.035474243    0.99839266     1.0497084      492.31609      8.4535829      8.4568663      0.69452509     35196.081    
   2446000   0.040237846   -36.514495      0.060354428   -36.454141     -0.016955385    1.0085828      0.9607788      492.36727      8.4585696      8.4535796      0.65080207     35206.816    
   2448000   0.040429125   -36.515158      0.060641335   -36.454516      0.048474302    0.99701451     0.96391043     492.30815      8.458027       8.4584411      0.66979975     35220.574    
   2450000   0.040165246   -36.514917      0.060245532   -36.454672      0.095303101    1.0820206      1.0210273      492.31794      8.4552912      8.4592375      0.73278368     35213.197    
   2452000   0.040123197   -36.514871      0.060182462   -36.454689     -0.037097864    1.0278091      0.97080245     492.30835      8.4593777      8.4540948      0.6538379      35208.112    
   2454000   0.040246188   -36.514976      0.06036694    -36.454609     -0.068532104    0.96870691     0.89882027     492.21057      8.4616257      8.4535738      0.59966503     35208.303    
   2456000   0.040098563   -36.515159      0.060145511   -36.455013      0.0012680543   0.99142468     1.0337676      492.27869      8.455703       8.4555651      0.67548679     35196.817    
   2458000   0.040046342   -36.514988      0.060067183   -36.454921     -0.06179281     1.029752       1.0319286      492.32132      8.4567931      8.4565631      0.66662926     35208.558    
   2460000   0.040159254   -36.514594      0.060236544   -36.454358     -0.067086449    1.0004906      1.0189236      492.30831      8.459652       8.4502671      0.65077592     35193.309    
   2462000   0.040255595   -36.515971      0.06038105    -36.45559      -0.022464762    0.93773828     1.0055005      492.38985      8.4564168      8.4580927      0.640258       35218.262    
   2464000   0.039851216   -36.514791      0.059774505   -36.455016      0.030435238    1.0152944      0.99287173     492.43483      8.4583468      8.452623       0.67953378     35206.735    
   2466000   0.040311044   -36.514864      0.06046422    -36.4544        0.020272971    1.0279331      1.0688283      492.31463      8.4572477      8.4551406      0.70567812     35204.049    
   2468000   0.040055223   -36.515778      0.060080504   -36.455698      0.072759119    1.0529056      0.940229       492.28011      8.4569093      8.4574518      0.68863122     35209.795    
   2470000   0.040167053   -36.515372      0.060248243   -36.455123      0.012130163    0.99275222     1.0351077      492.36473      8.4585218      8.4540793      0.67999668     35208.516    
   2472000   0.039920926   -36.514774      0.059879066   -36.454895     -0.057897058    0.930286       1.0099194      492.35943      8.4567426      8.4554899      0.62743611     35206.605    
   2474000   0.040204441   -36.515071      0.060304322   -36.454766     -0.0453903      1.038011       0.97141983     492.2618       8.4582976      8.4550212      0.65468017     35204.144    
   2476000   0.040074366   -36.515066      0.060109217   -36.454957      0.028891823    1.0262951      1.0916952      492.26921      8.4547375      8.4561257      0.71562735     35194.454    
   2478000   0.040106914   -36.514989      0.060158037   -36.454831     -0.11432459     0.96402259     1.0413884      492.22804      8.4553491      8.455421       0.63036215     35191.123    
   2480000   0.039979548   -36.514789      0.059966996   -36.454822      0.033521306    1.008785       1.0402445      492.25145      8.4602326      8.4527016      0.69418359     35201.798    
   2482000   0.039999771   -36.51497       0.059997329   -36.454972      0.078615455    1.000153       0.99651236     492.34849      8.4582515      8.4523672      0.69176026     35199.1      
   2484000   0.039898746   -36.515212      0.059845797   -36.455367      0.096204377    1.0061013      0.98847595     492.19538      8.4544822      8.4588409      0.6969272      35199.411    
   2486000   0.039670079   -36.515671      0.05950281    -36.456169     -0.088030339    0.98296468     0.96182943     492.20621      8.4567202      8.4565045      0.61892126     35199.779    
   2488000   0.039857412   -36.515197      0.059783798   -36.455414      0.015634508    0.98783746     1.0550559      492.14834      8.4558851      8.4557557      0.68617597     35189.049    
   2490000   0.040189842   -36.515112      0.060282425   -36.454829      0.00072586075  0.97513601     1.0100262      492.11564      8.4565222      8.45651        0.66196269     35192.5      
   2492000   0.040045014   -36.514244      0.06006519    -36.454179      0.014264744    1.0198382      1.0718844      492.15437      8.4515227      8.458364       0.70199578     35182.175    
   2494000   0.040240485   -36.515482      0.060358387   -36.455124      0.0076459714   1.0464792      0.97113105     492.27574      8.4596893      8.4546934      0.6750854      35209.569    
   2496000   0.039664467   -36.515338      0.059494392   -36.455844      0.04254042     1.0619492      1.0253416      492.18458      8.4529836      8.4584658      0.70994376     35190.84     
   2498000   0.039938815   -36.515362      0.059905899   -36.455456      0.0055877851   1.0093487      1.0657807      492.00789      8.4564779      8.4611744      0.69357238     35204.018    
   2500000   0.039865442   -36.515242      0.059795843   -36.455446     -0.049769052    0.96307972     0.97248381     492.10617      8.4561314      8.4583487      0.62859816     35197.849    
   2502000   0.039588612   -36.5143        0.059380615   -36.454919      0.011298902    1.024465       1.0037411      492.12825      8.4557728      8.4574481      0.67983499     35194.188    
   2504000   0.039859305   -36.515334      0.059786638   -36.455547     -0.081423128    1.0094344      0.96753213     492.17136      8.456493       8.4562504      0.6318478      35195.284    
   2506000   0.039827142   -36.515323      0.059738396   -36.455585     -0.016124237    1.0501204      1.0167632      492.24883      8.4524971      8.4589586      0.68358646     35195.458    
   2508000   0.040029573   -36.514921      0.06004203    -36.454879      0.13595121     1.0157091      0.99021926     492.18722      8.4555018      8.4565847      0.71395985     35193.683    
   2510000   0.039603228   -36.514503      0.059402538   -36.4551        0.024735599    0.99244601     0.96432323     492.29954      8.4573263      8.4546757      0.66050161     35201.363    
   2512000   0.040164259   -36.51475       0.060244051   -36.454506      0.0095171541   0.94678986     0.96649197     492.17176      8.453983       8.4578101      0.640933       35191.355    
   2514000   0.039934483   -36.51499       0.0598994     -36.45509      -0.016736139    1.014874       1.0565033      492.15344      8.4605911      8.4537814      0.68488039     35200.776    
   2516000   0.040303114   -36.515655      0.060452325   -36.455203      0.022473518    1.0489089      1.0014448      492.20332      8.4566786      8.4577007      0.69094241     35204.378    
   2518000   0.040504144   -36.515038      0.060753859   -36.454284      0.029911419    1.0058352      0.95677987     492.11465      8.4530125      8.4566187      0.66417551     35178.276    
   2520000   0.040040887   -36.515295      0.060059001   -36.455236     -0.0020274941   1.0209595      0.98961782     492.17524      8.4552741      8.4552951      0.66951661     35186.513    
   2522000   0.040168882   -36.515431      0.060250986   -36.45518      -0.099292319    0.97116006     1.0143608      492.1394       8.4578629      8.4554554      0.62874286     35195.39     
   2524000   0.039913033   -36.514488      0.059867227   -36.454621      0.098323181    0.96830491     1.0379024      492.1993       8.4521756      8.4577693      0.70151016     35185.631    
   2526000   0.040179578   -36.515362      0.06026703    -36.455095     -0.11653629     0.94094542     1.0196503      492.2127       8.4545636      8.4577569      0.61468647     35196.478    
   2528000   0.039829267   -36.514178      0.059741583   -36.454436     -0.026922239    1.0402892      1.0610011      492.15189      8.4544309      8.453347       0.69145603     35173.229    
   2530000   0.039934072   -36.515696      0.059898785   -36.455798     -0.02249625     1.0559297      1.0173608      492.21279      8.4536101      8.4584297      0.68359808     35195.315    
   2532000   0.039907484   -36.515951      0.059858904   -36.456092      0.019100766    1.0067049      1.0343539      492.14803      8.4566291      8.4571554      0.68671985     35197.948    
   2534000   0.039990751   -36.515624      0.0599838     -36.455641      0.0141262      0.86642439     0.97534129     492.06367      8.4556677      8.4567311      0.61863063     35186.149    
   2536000   0.04013336    -36.515676      0.060197705   -36.455478     -0.066815875    0.97102151     1.0227909      492.09655      8.4526091      8.4596019      0.64233218     35187.712    
   2538000   0.040430217   -36.515793      0.060642973   -36.45515       0.020838165    0.96903367     0.96519314     492.1704       8.4543612      8.4579873      0.65168833     35193.57     
   2540000   0.040012608   -36.515242      0.060016584   -36.455226      0.02665033     1.0410512      1.0138077      492.12169      8.4530764      8.4583628      0.69383638     35186.301    
   2542000   0.040100877   -36.515812      0.060148982   -36.455663     -0.042886744    0.94660973     1.0053984      492.15466      8.4572101      8.4547761      0.6363738      35190.937    
   2544000   0.03978195    -36.515027      0.059670611   -36.455356      0.056458105    1.0004898      0.95996992     492.14843      8.4532032      8.4572804      0.67230594     35184.238    
   2546000   0.039921013   -36.515489      0.059879197   -36.455609      0.11375047     1.0802013      0.99820218     492.0665       8.4525411      8.4609187      0.73071799     35190.757    
   2548000   0.039638997   -36.515285      0.05945619    -36.455829     -0.011153403    1.0465241      0.95568517     492.12674      8.4571227      8.4555459      0.66368528     35191.781    
   2550000   0.040559874   -36.51563       0.060837451   -36.454793      0.010776082    1.0453014      1.032282       492.08782      8.4548316      8.4577695      0.69611982     35188.716    
   2552000   0.040007466   -36.515338      0.060008871   -36.455329      0.04035284     0.98289112     1.0552442      492.06195      8.4547661      8.4558355      0.69282938     35178.547    
   2554000   0.039986547   -36.515494      0.059977494   -36.455517      0.049128798    1.049843       1.0629863      492.13526      8.4541598      8.4578471      0.72065269     35189.636    
   2556000   0.040314604   -36.514826      0.06046956    -36.454356     -0.058863281    0.92130504     0.99967669     492.04337      8.4544379      8.4576832      0.62070615     35183.54     
   2558000   0.03961178    -36.515618      0.059415366   -36.456202      0.024921136    0.9758351      0.99418932     491.92296      8.4566291      8.4556531      0.66498185     35175.602    
   2560000   0.039954753   -36.514815      0.059929805   -36.454885     -0.0057845418   0.97231956     0.95527146     492.18769      8.4549611      8.4546842      0.64060216     35183.558    
   2562000   0.039685303   -36.514956      0.059525646   -36.455431      0.016480396    0.98868934     0.99006917     492.07898      8.4555144      8.4556677      0.66507964     35182.181    
   2564000   0.039893231   -36.515453      0.059837525   -36.455616     -0.027777449    1.0078727      1.0325188      492.04477      8.4553329      8.4589164      0.67087134     35192.496    
   2566000   0.040055971   -36.515763      0.060081627   -36.455682      0.050173044    0.99544829     0.9901135      492.03477      8.4557295      8.4588518      0.67857828     35193.162    
   2568000   0.039931263   -36.514975      0.059894571   -36.455081      0.085752041    1.0062567      0.99372126     492.13433      8.4539404      8.4567187      0.69524334     35183.961    
   2570000   0.039837093   -36.515011      0.059753322   -36.455258      0.033616601    1.0568446      1.0170711      492.07404      8.4541665      8.4578236      0.70251076     35185.188    
   2572000   0.040173522   -36.514986      0.060257945   -36.454728     -0.016152511    1.0530032      1.0423468      492.09039      8.4572879      8.4552041      0.69306582     35188.446    
   2574000   0.039969469   -36.51506       0.059951877   -36.455108     -0.15201472     0.93342614     0.90415911     492.21171      8.4534198      8.4584945      0.56185685     35194.715    
   2576000   0.039698068   -36.515805      0.059544792   -36.45626      -0.078759408    1.0370422      1.0596638      492.04944      8.45651        8.4586078      0.67264889     35196.444    
   2578000   0.040253586   -36.51564       0.060378037   -36.455262     -0.030717895    0.9742813      0.98102974     492.10233      8.455852       8.4582294      0.64153105     35195.915    
   2580000   0.039978731   -36.515723      0.05996577    -36.455757     -0.042492174    1.0161977      0.93873772     492.16072      8.4541571      8.4596763      0.63748107     35199.055    
   2582000   0.039804151   -36.51588       0.05970391    -36.456176     -0.058758612    0.98718113     1.0037753      492.13742      8.4574045      8.4564813      0.64406595     35197.61     
   2584000   0.040013971   -36.516102      0.060018629   -36.456083     -0.10449432     0.9369042      0.95775366     492.09282      8.4573542      8.4566081      0.59672118     35194.739    
   2586000   0.040079814   -36.516084      0.06011739    -36.455966      0.033406091    1.0099107      0.9845311      491.9968       8.4558234      8.4580628      0.67594929     35187.554    
   2588000   0.04012491    -36.516241      0.06018503    -36.456056      0.088475327    1.0016495      0.99909654     492.03525      8.4538634      8.4617616      0.69640711     35197.533    
   2590000   0.040142875   -36.516057      0.060211978   -36.455845      0.021675328    1.0398547      1.0165991      492.05887      8.4572485      8.4555547      0.69270969     35187.488    
   2592000   0.04023269    -36.516031      0.060346695   -36.455684      1.6104156e-05  0.98431476     0.9855167      491.90626      8.456606       8.4575936      0.65661586     35182.384    
   2594000   0.040377379   -36.516034      0.060563719   -36.45547      -0.0028205411   0.95359187     1.0385473      492.11399      8.4566516      8.4569028      0.6631062      35194.556    
   2596000   0.03997118    -36.51604       0.059954445   -36.456086      0.07219138     0.95607964     1.0230465      491.91802      8.4573239      8.4592748      0.6837725      35193.206    
   2598000   0.040117704   -36.515613      0.060174222   -36.455438     -0.0086721633   0.94905642     0.97319229     492.04005      8.4568161      8.4573739      0.63785885     35191.912    
   2600000   0.040042445   -36.515964      0.060061337   -36.455903      0.079925357    1.0602682      1.1141368      492.10253      8.4569675      8.4569558      0.75144346     35195.272    
   2602000   0.039891064   -36.515652      0.059834275   -36.455818      0.082680724    1.0265393      1.0758353      492.07765      8.4570148      8.4564435      0.72835179     35191.557    
   2604000   0.040252031   -36.515375      0.060375705   -36.455         0.0043087393   1.0007027      1.0054492      492.01808      8.456279       8.4572141      0.67015353     35187.441    
   2606000   0.039970582   -36.514891      0.059953547   -36.454937      0.044532834    0.97323158     0.97275355     492.06292      8.4559708      8.4579914      0.66350599     35192.6      
   2608000   0.040152643   -36.515237      0.060226628   -36.45501       0.054792397    0.98483632     1.0160706      492.10254      8.4556975      8.4559597      0.68523312     35185.842    
   2610000   0.039660395   -36.515711      0.059488286   -36.456222     -0.11225292     0.89938979     0.92396247     491.96287      8.4559775      8.4580344      0.57036644     35185.651    
   2612000   0.040128744   -36.516087      0.060190781   -36.455896     -0.0019223619   0.94055495     1.0096884      492.0107       8.4547965      8.4595534      0.64944032     35190.476    
   2614000   0.040335803   -36.515596      0.060501358   -36.455095     -0.13993029     0.97125134     1.0281131      492.07202      8.4582515      8.4531906      0.61981139     35182.762    
   2616000   0.040039831   -36.515644      0.060057417   -36.455586      0.0419488      1.0118208      1.0368056      492.10927      8.4537294      8.4583164      0.6968584      35187.938    
   2618000   0.040084086   -36.516117      0.060123796   -36.455993     -0.014254706    0.97603614     0.9972645      492.03645      8.4591294      8.4568122      0.65301531     35198.944    
   2620000   0.039929587   -36.516056      0.059892058   -36.456164      0.028119376    0.97346649     0.99267458     491.92165      8.4566217      8.4587165      0.66475348     35188.221    
   2622000   0.040369432   -36.515678      0.060551799   -36.455126      0.14457102     1.0153201      0.9871257      492.13349      8.456768       8.4581287      0.71567227     35201.537    
   2624000   0.039778833   -36.516355      0.059665935   -36.456689     -0.03060043     1.0881202      1.017433       491.97469      8.4577302      8.4566711      0.69165094     35188.117    
   2626000   0.040000443   -36.516288      0.059998337   -36.45629       0.12142981     1.0247256      0.99835479     491.98247      8.45703        8.4563536      0.71483672     35184.439    
   2628000   0.039958552   -36.515431      0.059935503   -36.455495      0.056559969    1.0227896      1.0030866      492.02424      8.456811       8.4590881      0.69414542     35197.893    
   2630000   0.039908025   -36.515485      0.059859716   -36.455625     -0.05507779     0.91434256     0.98279772     491.99948      8.4550155      8.4587706      0.61402083     35187.329    
   2632000   0.039936713   -36.516359      0.059902745   -36.456457      0.024769173    0.96675113     1.0103232      492.01976      8.4587747      8.4567163      0.66728118     35195.875    
   2634000   0.040019701   -36.516047      0.060027223   -36.45602      -0.038258776    1.0329765      1.0391483      491.98799      8.4597422      8.4556219      0.67795531     35193.073    
   2636000   0.039842371   -36.515964      0.059761239   -36.456203     -0.015732257    0.92312643     0.92821746     491.94311      8.4550217      8.458967       0.61187054     35184.14     
   2638000   0.040017747   -36.516325      0.060024291   -36.456301      0.0034869151   0.98624512     1.0429664      491.9388       8.4560108      8.4598534      0.67756613     35191.635    
   2640000   0.039622077   -36.516054      0.05943081    -36.456623      0.021275685    1.0406294      1.0421556      491.96509      8.455605       8.4582721      0.70135355     35185.248    
   2642000   0.039840922   -36.515844      0.059759065   -36.456085      0.037614756    1.0067355      1.018875       492.016        8.4572117      8.4566228      0.68774174     35188.714    
   2644000   0.039835887   -36.515689      0.059751513   -36.455937      0.12095323     1.0269383      1.034805       491.96992      8.4536179      8.4602085      0.72756551     35185.379    
   2646000   0.039551114   -36.51585       0.05932437    -36.456526      0.10834441     0.98666112     1.1176131      492.02717      8.4574607      8.4590268      0.73753955     35200.552    
   2648000   0.039655322   -36.515743      0.059480675   -36.456262      0.11575475     1.0224126      1.0464485      492.02923      8.456649       8.4563058      0.7282053      35186        
   2650000   0.040273713   -36.515586      0.060408226   -36.455177     -0.052936447    1.0203463      1.0236882      491.98387      8.4531095      8.459818       0.66369937     35182.637    
   2652000   0.039990818   -36.515568      0.0599839     -36.455585     -0.00059582506  1.0147361      1.0177711      491.99003      8.4594857      8.4528976      0.67730378     35180.813    
   2654000   0.040353291   -36.515633      0.060527588   -36.455106      0.0010850449   1.0272614      1.0119787      492.04685      8.4605248      8.4548062      0.68010838     35197.143    
   2656000   0.040205923   -36.515909      0.060306545   -36.455603      0.037923707    1.1206043      1.0474996      491.9896       8.4551305      8.459198       0.73534251     35188.879    
   2658000   0.039966597   -36.516332      0.059947569   -36.456384     -0.045738863    0.96597965     0.99024844     492.0187       8.4577236      8.4558053      0.63682974     35187.634    
   2660000   0.040123546   -36.515107      0.060182984   -36.454924      0.024268717    1.0423512      1.0136884      492.05302      8.4576082      8.4567443      0.69343611     35193.516    
   2662000   0.040054914   -36.515889      0.060080041   -36.455809     -0.0077355786   1.0013251      1.0144863      492.05543      8.4587275      8.4581888      0.66935861     35204.359    
   2664000   0.039849191   -36.516223      0.059771468   -36.456452      0.1299242      0.98418085     1.059929       492.02276      8.4585961      8.456652       0.72467802     35195.078    
   2666000   0.039691038   -36.515938      0.059534247   -36.456403     -0.0092928382   1.0474306      1.0068673      492.12192      8.4545937      8.4589927      0.68166836     35195.254    
   2668000   0.040324406   -36.516462      0.060484263   -36.455978     -0.012908851    1.0284892      0.97478378     492.03324      8.4582101      8.456356       0.66345472     35192.99     
   2670000   0.040144155   -36.515728      0.060213898   -36.455515      0.032614951    0.93536099     0.94356793     492.0326       8.4552579      8.4576742      0.63718129     35186.145    
   2672000   0.040002704   -36.516128      0.060001728   -36.456127      0.043724128    1.0084298      0.9885561      492.11719      8.4584634      8.4555533      0.68023667     35196.707    
   2674000   0.040032633   -36.515633      0.06004662    -36.455587     -0.063340964    0.96126998     1.0274829      492.06045      8.4557956      8.4562         0.64180398     35184.241    
   2676000   0.040041027   -36.516109      0.060059211   -36.45605       0.056382093    1.0525227      1.0125323      491.9914       8.4548356      8.4581801      0.70714568     35183.546    
   2678000   0.039964742   -36.515807      0.059944788   -36.455863      0.018198993    1.0112831      1.0223231      492.03357      8.4556273      8.4568364      0.68393504     35184.266    
   2680000   0.039928402   -36.516125      0.059890281   -36.456235     -0.023815789    0.9751103      0.98326454     492.1285       8.4564637      8.4586982      0.64485302     35202.283    
   2682000   0.040046345   -36.515949      0.060067187   -36.455882     -0.014389902    0.97595743     1.0316107      492.02252      8.4548643      8.4582561      0.66439273     35186.207    
   2684000   0.039932841   -36.516403      0.059896937   -36.456506     -0.023979839    1.0333179      1.0636268      491.99364      8.4564728      8.4583787      0.69098828     35191.345    
   2686000   0.039864902   -36.515895      0.059795034   -36.4561        0.11046297     1.0300225      0.97974291     491.92774      8.4569757      8.4574155      0.70674279     35184.717    
   2688000   0.040043074   -36.516587      0.060062281   -36.456525     -0.026330333    0.95602629     0.97280614     491.95036      8.4559063      8.4597856      0.63416737     35191.745    
   2690000   0.039914217   -36.51618       0.059869003   -36.456311      0.0088950584   0.95726645     1.062613       491.99038      8.455484       8.4582154      0.67625816     35186.318    
   2692000   0.040086934   -36.515726      0.060128068   -36.455597     -0.060196947    1.003387       1.0215394      492.01973      8.4557147      8.4561493      0.65490982     35180.782    
   2694000   0.04003783    -36.515585      0.060054415   -36.455531      0.085823153    1.0400994      1.0364579      492.02046      8.4554401      8.4582639      0.72079349     35188.488    
   2696000   0.040209954   -36.515555      0.060312592   -36.455242      0.0036816088   0.98939981     0.97422432     492.07702      8.4544593      8.4585895      0.65576858     35189.806    
   2698000   0.040169757   -36.515034      0.060252298   -36.454782     -0.057005799    0.99741671     1.014802       491.94846      8.4580171      8.4542642      0.65173763     35177.42     
   2700000   0.04003172    -36.515993      0.060045251   -36.455948      0.016244441    0.96441659     1.0399179      491.86856      8.4562977      8.4577137      0.6735263      35178.904    
Loop time of 3051.42 on 1 procs for 300000 steps with 25781 atoms

Performance: 8494.395 tau/day, 98.315 timesteps/s, 2.535 Matom-step/s
100.0% CPU use with 1 MPI tasks x 1 OpenMP threads

MPI task timing breakdown:
Section |  min time  |  avg time  |  max time  |%varavg| %total
---------------------------------------------------------------
Pair    | 2683.2     | 2683.2     | 2683.2     |   0.0 | 87.93
Neigh   | 33.935     | 33.935     | 33.935     |   0.0 |  1.11
Comm    | 65.594     | 65.594     | 65.594     |   0.0 |  2.15
Output  | 0.25272    | 0.25272    | 0.25272    |   0.0 |  0.01
Modify  | 234.83     | 234.83     | 234.83     |   0.0 |  7.70
Other   |            | 33.61      |            |       |  1.10

Nlocal:          25781 ave       25781 max       25781 min
Histogram: 1 0 0 0 0 0 0 0 0 0
Nghost:          56743 ave       56743 max       56743 min
Histogram: 1 0 0 0 0 0 0 0 0 0
Neighs:         482356 ave      482356 max      482356 min
Histogram: 1 0 0 0 0 0 0 0 0 0

Total # of neighbors = 482356
Ave neighs/atom = 18.709747
Neighbor list builds = 1120
Dangerous builds = 0
unfix           1

###############decompression##########################################
variable       finalpress equal press
fix             1 all npt temp ${tf} ${tf} 0.01 iso ${finalpress} 0.0 10
fix             1 all npt temp 0.04 ${tf} 0.01 iso ${finalpress} 0.0 10
fix             1 all npt temp 0.04 0.04 0.01 iso ${finalpress} 0.0 10
fix             1 all npt temp 0.04 0.04 0.01 iso 0.673526302089337 0.0 10
run            200000
Generated 0 of 36 mixed pair_coeff terms from geometric mixing rule
Per MPI rank memory allocation (min/avg/max) = 26.11 | 26.11 | 26.11 Mbytes
   Step          Temp          PotEng         KinEng         TotEng          Pxx            Pyy            Pzz             Lx             Ly             Lz           Press          Volume    
   2700000   0.04003172    -36.515993      0.060045251   -36.455948      0.016244441    0.96441659     1.0399179      491.86856      8.4562977      8.4577137      0.6735263      35178.904    
   2702000   0.040337606   -36.5167        0.060504063   -36.456196      0.083365096    0.95579127     1.0183925      491.94676      8.457642       8.4590582      0.68584961     35195.684    
   2704000   0.040245133   -36.516505      0.060365358   -36.456139     -0.073691647    1.0487533      1.014028       492.01204      8.4587644      8.4601808      0.66302989     35209.698    
   2706000   0.039991463   -36.516734      0.059984867   -36.456749      0.05076346     0.97162342     1.0245844      492.10444      8.4603529      8.4617696      0.68232377     35229.538    
   2708000   0.040014795   -36.517628      0.060019864   -36.457608     -0.031972653    0.98700208     0.98761354     492.15636      8.4612455      8.4626624      0.64754766     35240.691    
   2710000   0.040372995   -36.517692      0.060557143   -36.457135      0.040091864    0.9456388      0.97705533     492.22814      8.4624796      8.4638967      0.654262       35256.113    
   2712000   0.039946598   -36.517918      0.059917572   -36.458001      0.016137798    0.91372823     0.94804099     492.29898      8.4636974      8.4651147      0.62596901     35271.336    
   2714000   0.039693032   -36.518457      0.059537239   -36.45892      -0.018770892    0.95154574     0.96815162     492.34032      8.4644081      8.4658255      0.63364216     35280.222    
   2716000   0.039698238   -36.518835      0.059545047   -36.459289     -0.15107298     0.94453098     0.95795029     492.42373      8.4658423      8.4672599      0.58380276     35298.158    
   2718000   0.04006115    -36.519206      0.060089394   -36.459117      0.12111534     0.93839482     0.97936505     492.5524       8.4680543      8.4694723      0.67962507     35325.834    
   2720000   0.04027969    -36.519592      0.060417192   -36.459175      0.053460792    1.0203053      0.90067425     492.66333      8.4699615      8.4713798      0.65814679     35349.708    
   2722000   0.040127672   -36.519726      0.060189173   -36.459537      0.042464981    0.97860164     0.88648672     492.67101      8.4700934      8.4715118      0.63585111     35351.36     
   2724000   0.040765699   -36.52042       0.061146176   -36.459274     -0.042730086    0.91928815     0.93148478     492.87755      8.4736443      8.4750633      0.60268095     35395.839    
   2726000   0.040140375   -36.520691      0.060208227   -36.460483     -0.096459395    0.9292396      0.95359527     492.88996      8.4738577      8.4752767      0.59545849     35398.513    
   2728000   0.040009564   -36.520792      0.060012018   -36.46078      -0.10360496     0.86322322     0.87492153     492.96662      8.4751756      8.4765948      0.5448466      35415.033    
   2730000   0.039980566   -36.52154       0.059968522   -36.461571     -0.12132072     0.91522286     0.83010195     493.02435      8.4761682      8.4775876      0.5413347      35427.477    
   2732000   0.03940603    -36.521607      0.059106753   -36.4625       -0.095208678    0.93065621     0.85564186     493.10815      8.4776089      8.4790285      0.56369647     35445.545    
   2734000   0.039991151   -36.521775      0.0599844     -36.461791     -0.20428729     0.85567093     0.86809381     493.18001      8.4788443      8.4802641      0.50649248     35461.043    
   2736000   0.040396057   -36.522526      0.060591735   -36.461934     -0.19676984     0.9344858      0.83098769     493.28121      8.4805841      8.4820043      0.52290122     35482.877    
   2738000   0.040034063   -36.522188      0.060048765   -36.46214      -0.018358978    0.96375443     0.88365042     493.29517      8.4808241      8.4822442      0.60968196     35485.889    
   2740000   0.039747991   -36.523282      0.059619674   -36.463662     -0.026145792    0.86618051     0.89530675     493.4541       8.4835564      8.484977       0.57844716     35520.198    
   2742000   0.039991053   -36.522711      0.059984252   -36.462727     -0.21028876     0.86111481     0.78104657     493.51843      8.4846624      8.4860832      0.47729087     35534.092    
   2744000   0.039549943   -36.523491      0.059322613   -36.464169     -0.12491315     0.96607341     0.8856381      493.64801      8.4868902      8.4883114      0.57559946     35562.09     
   2746000   0.040097551   -36.524545      0.060143993   -36.464401     -0.078799431    0.8415637      0.87747902     493.74959      8.4886367      8.4900582      0.54674776     35584.049    
   2748000   0.03981265    -36.524895      0.059716659   -36.465178     -0.088783671    0.86266169     0.79461803     493.83477      8.490101       8.4915227      0.52283202     35602.467    
   2750000   0.0398938     -36.5244        0.059838379   -36.464562     -0.17881892     0.71846329     0.73956311     493.92194      8.4915997      8.4930217      0.4264025      35621.325    
   2752000   0.040402402   -36.525191      0.060601253   -36.46459      -0.068429869    0.88319082     0.84591452     494.02239      8.4933267      8.494749       0.55355849     35643.063    
   2754000   0.040035777   -36.525665      0.060051336   -36.465614     -0.1019162      0.83604488     0.80893054     494.07681      8.4942622      8.4956846      0.51435307     35654.842    
   2756000   0.039858601   -36.525281      0.059785582   -36.465495     -0.19467389     0.88637427     0.78790561     494.16823      8.495834       8.4972566      0.493202       35674.638    
   2758000   0.039783566   -36.526788      0.059673035   -36.467115     -0.08609393     0.81804891     0.75423446     494.26718      8.4975351      8.4989581      0.49539648     35696.072    
   2760000   0.040106118   -36.527273      0.060156844   -36.467116     -0.21563097     0.82902506     0.78864721     494.39591      8.4997483      8.5011716      0.4673471      35723.97     
   2762000   0.040294817   -36.527101      0.06043988    -36.466661     -0.22865876     0.76076019     0.80409168     494.44262      8.5005513      8.5019747      0.4453977      35734.096    
   2764000   0.039852238   -36.5269        0.059776038   -36.467124     -0.13265356     0.75404724     0.76290418     494.52225      8.5019203      8.503344       0.46143262     35751.364    
   2766000   0.040067857   -36.527164      0.060099454   -36.467064     -0.17866702     0.69025682     0.69667268     494.63044      8.5037803      8.5052043      0.40275416     35774.833    
   2768000   0.039975109   -36.527665      0.059960337   -36.467705     -0.14855907     0.79639674     0.73667965     494.72099      8.505337       8.5067613      0.46150577     35794.484    
   2770000   0.040201629   -36.528372      0.060300104   -36.468072     -0.12216032     0.82016345     0.79511734     494.90943      8.5085768      8.5100016      0.49770682     35835.403    
   2772000   0.039989815   -36.528692      0.059982395   -36.46871      -0.082001142    0.74605873     0.77470898     494.95141      8.5092985      8.5107234      0.47958886     35844.522    
   2774000   0.039618009   -36.52933       0.059424709   -36.469905     -0.064069248    0.70835416     0.70598266     495.03933      8.5108101      8.5122353      0.45008919     35863.629    
   2776000   0.039714976   -36.52947       0.059570153   -36.4699       -0.13353143     0.69366223     0.68557114     495.10855      8.5120001      8.5134254      0.41523398     35878.674    
   2778000   0.040024904   -36.528923      0.060035028   -36.468888     -0.12115818     0.74083145     0.71231823     495.22649      8.5140278      8.5154535      0.44399717     35904.32     
   2780000   0.039863048   -36.529954      0.059792252   -36.470161     -0.20137677     0.67683946     0.69694902     495.32071      8.5156476      8.5170736      0.3908039      35924.817    
   2782000   0.040295432   -36.529527      0.060440804   -36.469086     -0.31887464     0.58608925     0.65505226     495.43717      8.5176499      8.5190762      0.30742229     35950.164    
   2784000   0.040122381   -36.530429      0.060181237   -36.470248     -0.17709563     0.72313588     0.72910418     495.57604      8.5200373      8.521464       0.42504814     35980.402    
   2786000   0.039791475   -36.530903      0.059684898   -36.471218     -0.30945982     0.66203832     0.59346642     495.65875      8.5214592      8.5228862      0.31534831     35998.42     
   2788000   0.039944272   -36.531407      0.059914084   -36.471493     -0.27738633     0.6615103      0.68183056     495.7673       8.5233254      8.5247527      0.35531818     36022.076    
   2790000   0.03971542    -36.531801      0.05957082    -36.47223      -0.2436247      0.68731633     0.69969443     495.90533      8.5256985      8.5271261      0.38112869     36052.171    
   2792000   0.040215994   -36.531458      0.060321651   -36.471136     -0.12733011     0.64796561     0.74682045     496.03022      8.5278457      8.5292737      0.42248532     36079.418    
   2794000   0.039875184   -36.531318      0.059810456   -36.471508     -0.33260433     0.6707856      0.6193897      496.04405      8.5280834      8.5295115      0.31919032     36082.435    
   2796000   0.039739327   -36.532324      0.059606679   -36.472717     -0.20779566     0.68431804     0.62718211     496.23111      8.5312994      8.532728       0.36790149     36123.272    
   2798000   0.040162409   -36.533068      0.060241276   -36.472827     -0.22640185     0.61725222     0.58516889     496.40614      8.5343086      8.5357377      0.32533975     36161.509    
   2800000   0.039606688   -36.533245      0.059407728   -36.473837     -0.26919432     0.582329       0.53808296     496.49217      8.5357875      8.5372169      0.28373921     36180.313    
   2802000   0.040376042   -36.534456      0.060561714   -36.473894     -0.36253473     0.57573796     0.60098658     496.62892      8.5381386      8.5395684      0.2713966      36210.217    
   2804000   0.039771536   -36.53435       0.05965499    -36.474695     -0.40921792     0.64351156     0.58658075     496.8163       8.5413601      8.5427904      0.2736248      36251.22     
   2806000   0.040113232   -36.534644      0.060167514   -36.474477     -0.30462279     0.52135428     0.56336575     496.91815      8.5431111      8.5445417      0.26003241     36273.518    
   2808000   0.040236332   -36.534823      0.060352157   -36.474471     -0.25253922     0.62001303     0.61438881     497.0279       8.544998       8.5464289      0.32728754     36297.559    
   2810000   0.040012845   -36.535005      0.060016939   -36.474988     -0.33037438     0.66620939     0.61781083     497.14774      8.5470582      8.5484895      0.31788195     36323.82     
   2812000   0.039904984   -36.535605      0.059855154   -36.47575      -0.33680956     0.63313814     0.64841268     497.2832       8.549387       8.5508187      0.31491375     36353.519    
   2814000   0.040129219   -36.535648      0.060191493   -36.475457     -0.42714732     0.51171175     0.50902151     497.33707      8.5503133      8.5517451      0.19786198     36365.336    
   2816000   0.039786986   -36.536245      0.059678165   -36.476567     -0.41746253     0.60907916     0.5847457      497.5487       8.5539516      8.555384       0.25878744     36411.779    
   2818000   0.040052842   -36.53669       0.060076933   -36.476613     -0.32397463     0.48054684     0.61146705     497.70502      8.5566391      8.558072       0.25601309     36446.109    
   2820000   0.039755634   -36.537325      0.059631138   -36.477694     -0.27026377     0.54508361     0.61080568     497.77089      8.5577717      8.5592047      0.29520851     36460.583    
   2822000   0.039963502   -36.537294      0.059942928   -36.477351     -0.26065514     0.58713843     0.54093567     497.90532      8.5600827      8.5615161      0.28913965     36490.129    
   2824000   0.040233703   -36.537368      0.060348213   -36.477019     -0.35920502     0.60801811     0.58341054     498.03541      8.5623192      8.563753       0.27740788     36518.739    
   2826000   0.039754208   -36.537405      0.059628999   -36.477776     -0.28940261     0.54230503     0.50099888     498.22381      8.5655583      8.5669926      0.25130043     36560.198    
   2828000   0.040210328   -36.538012      0.060313153   -36.477699     -0.37089224     0.54360858     0.52655139     498.31968      8.5672065      8.5686412      0.23308924     36581.308    
   2830000   0.039950917   -36.538404      0.059924051   -36.47848      -0.28949165     0.55283379     0.5661799      498.37791      8.5682075      8.5696423      0.27650734     36594.133    
   2832000   0.04011313    -36.538796      0.060167361   -36.478628     -0.29837166     0.55021833     0.5603768      498.52078      8.5706639      8.5720991      0.27074116     36625.614    
   2834000   0.039896733   -36.538466      0.059842778   -36.478623     -0.4172567      0.52348465     0.54101038     498.65945      8.5730478      8.5744834      0.21574611     36656.185    
   2836000   0.039972813   -36.538945      0.059956894   -36.478988     -0.4268722      0.5285997      0.51874594     498.80055      8.5754737      8.5769097      0.20682448     36687.312    
   2838000   0.039863643   -36.53896       0.059793145   -36.479167     -0.42097006     0.51275657     0.55932918     498.90223      8.5772218      8.578658       0.21703856     36709.751    
   2840000   0.040056724   -36.538799      0.060082755   -36.478716     -0.29259307     0.54370603     0.50506378     498.93152      8.5777254      8.5791618      0.25205891     36716.218    
   2842000   0.040140791   -36.539547      0.060208851   -36.479338     -0.41384727     0.53442749     0.54364876     499.26055      8.5833821      8.5848194      0.22140966     36788.905    
   2844000   0.039790439   -36.540305      0.059683343   -36.480622     -0.46190799     0.48368076     0.51020881     499.27271      8.5835912      8.5850285      0.17732719     36791.593    
   2846000   0.040121702   -36.540352      0.060180218   -36.480172     -0.41472826     0.46474504     0.50221917     499.40982      8.5859483      8.587386       0.18407865     36821.911    
   2848000   0.039734533   -36.540384      0.059599488   -36.480785     -0.50130144     0.48777465     0.50671165     499.59993      8.5892168      8.5906551      0.16439495     36863.979    
   2850000   0.039986573   -36.54059       0.059977532   -36.480612     -0.36670872     0.48452635     0.50806401     499.65681      8.5901947      8.5916331      0.20862722     36876.572    
   2852000   0.039748182   -36.540813      0.05961996    -36.481193     -0.4688403      0.44485418     0.4565491      499.83437      8.5932473      8.5946862      0.14418766     36915.899    
   2854000   0.040185867   -36.540439      0.060276463   -36.480163     -0.52848975     0.43810937     0.46006991     500.00307      8.5961476      8.5975871      0.12322984     36953.29     
   2856000   0.040139031   -36.541682      0.060206211   -36.481476     -0.45126915     0.45771976     0.44854948     500.14935      8.5986626      8.6001025      0.15166669     36985.734    
   2858000   0.040215857   -36.541326      0.060321446   -36.481005     -0.45337901     0.49164984     0.44590904     500.22282      8.5999257      8.6013657      0.16139329     37002.035    
   2860000   0.039916166   -36.541794      0.059871926   -36.481922     -0.43730912     0.42520465     0.45466179     500.32523      8.6016863      8.6031267      0.14751911     37024.766    
   2862000   0.040037504   -36.542197      0.060053927   -36.482143     -0.41264393     0.43523843     0.40161966     500.58182      8.6060975      8.6075387      0.14140472     37081.758    
   2864000   0.04041535    -36.542085      0.060620674   -36.481464     -0.48641386     0.44568156     0.37585532     500.76046      8.6091688      8.6106105      0.11170767     37121.473    
   2866000   0.040002974   -36.542062      0.060002134   -36.482059     -0.4538865      0.45003469     0.43089708     500.82233      8.6102325      8.6116743      0.14234842     37135.234    
   2868000   0.040303511   -36.542531      0.060452922   -36.482078     -0.65519211     0.34315019     0.38601645     501.04053      8.6139838      8.6154263      0.024658177    37183.792    
   2870000   0.040027284   -36.542073      0.060038597   -36.482034     -0.48423253     0.41985088     0.40920942     501.20797      8.6168625      8.6183055      0.11494259     37221.084    
   2872000   0.040101136   -36.543143      0.060149371   -36.482994     -0.47985767     0.44685224     0.44049111     501.33946      8.6191231      8.6205664      0.13582856     37250.386    
   2874000   0.040047167   -36.542642      0.060068421   -36.482573     -0.48857365     0.41868921     0.3816408      501.49585      8.6218119      8.6232556      0.10391878     37285.258    
   2876000   0.04030655    -36.542632      0.06045748    -36.482174     -0.57713535     0.43805264     0.41144417     501.67269      8.624852       8.6262963      0.090787154    37324.713    
   2878000   0.039861864   -36.543204      0.059790477   -36.483414     -0.59281586     0.36686417     0.36367193     501.75836      8.6263249      8.6277694      0.045906745    37343.839    
   2880000   0.04016933    -36.543243      0.060251657   -36.482991     -0.56230516     0.37670585     0.36991323     502.02424      8.630896       8.6323413      0.061437973    37403.236    
   2882000   0.039827933   -36.543004      0.059739582   -36.483264     -0.55951917     0.39710524     0.40377324     502.08735      8.631981       8.6334265      0.080453105    37417.344    
   2884000   0.039747813   -36.543552      0.059619408   -36.483932     -0.66287563     0.3571206      0.32186899     502.30404      8.6357064      8.6371524      0.0053713203   37465.81     
   2886000   0.039591283   -36.543537      0.059384621   -36.484153     -0.54545722     0.4030089      0.33145557     502.44413      8.6381147      8.6395612      0.063002419    37497.165    
   2888000   0.040119701   -36.543129      0.060177216   -36.482952     -0.63603811     0.3970951      0.34605576     502.70308      8.6425667      8.644014       0.035704249    37555.172    
   2890000   0.040078719   -36.543733      0.060115747   -36.483618     -0.60460752     0.3366764      0.36988889     502.8693       8.6454243      8.646872       0.033985925    37592.436    
   2892000   0.039724468   -36.543768      0.059584391   -36.484184     -0.6473374      0.33647562     0.31913189     503.0893       8.6492067      8.650655       0.0027567048   37641.797    
   2894000   0.039830144   -36.544226      0.059742899   -36.484483     -0.54616428     0.35321476     0.36512005     503.33326      8.6534009      8.6548499      0.057390178    37696.584    
   2896000   0.039914294   -36.544087      0.059869119   -36.484218     -0.6711252      0.36511711     0.34313379     503.51212      8.6564759      8.6579255      0.012375234    37736.785    
   2898000   0.039978696   -36.54443       0.059965718   -36.484464     -0.63957023     0.38948619     0.35325671     503.84026      8.6621174      8.6635679      0.03439089     37810.613    
   2900000   0.040181413   -36.544576      0.060269781   -36.484307     -0.66275268     0.32967896     0.31850804     504.0182       8.6651765      8.6666276     -0.0048552292   37850.687    
Loop time of 1965.63 on 1 procs for 200000 steps with 25781 atoms

Performance: 8791.088 tau/day, 101.749 timesteps/s, 2.623 Matom-step/s
100.0% CPU use with 1 MPI tasks x 1 OpenMP threads

MPI task timing breakdown:
Section |  min time  |  avg time  |  max time  |%varavg| %total
---------------------------------------------------------------
Pair    | 1744.7     | 1744.7     | 1744.7     |   0.0 | 88.76
Neigh   | 21.225     | 21.225     | 21.225     |   0.0 |  1.08
Comm    | 43.327     | 43.327     | 43.327     |   0.0 |  2.20
Output  | 0.17495    | 0.17495    | 0.17495    |   0.0 |  0.01
Modify  | 133.82     | 133.82     | 133.82     |   0.0 |  6.81
Other   |            | 22.4       |            |       |  1.14

Nlocal:          25781 ave       25781 max       25781 min
Histogram: 1 0 0 0 0 0 0 0 0 0
Nghost:          54814 ave       54814 max       54814 min
Histogram: 1 0 0 0 0 0 0 0 0 0
Neighs:         472857 ave      472857 max      472857 min
Histogram: 1 0 0 0 0 0 0 0 0 0

Total # of neighbors = 472857
Ave neighs/atom = 18.341298
Neighbor list builds = 704
Dangerous builds = 0
unfix          1

###############maintain pressure_relaxation############################
fix             1 all npt temp ${tf} ${tf} 0.01 x 0.0 0.0 5.0 y 0.0 0.0 5.0 z 0.0 0.0 5.0
fix             1 all npt temp 0.04 ${tf} 0.01 x 0.0 0.0 5.0 y 0.0 0.0 5.0 z 0.0 0.0 5.0
fix             1 all npt temp 0.04 0.04 0.01 x 0.0 0.0 5.0 y 0.0 0.0 5.0 z 0.0 0.0 5.0
run            200000
Generated 0 of 36 mixed pair_coeff terms from geometric mixing rule
Per MPI rank memory allocation (min/avg/max) = 26.11 | 26.11 | 26.11 Mbytes
   Step          Temp          PotEng         KinEng         TotEng          Pxx            Pyy            Pzz             Lx             Ly             Lz           Press          Volume    
   2900000   0.040181413   -36.544576      0.060269781   -36.484307     -0.66275268     0.32967896     0.31850804     504.0182       8.6651765      8.6666276     -0.0048552292   37850.687    
   2902000   0.040097318   -36.567577      0.060143644   -36.507433      0.0035328687   0.070404391    0.0038090584   490.4542       9.0251859      8.9757855      0.025915439    39730.779    
   2904000   0.039741728   -36.570934      0.05961028    -36.511324     -0.066598629    0.01668811     0.019626871    486.46702      9.1807719      9.0921289     -0.010094549    40606.745    
   2906000   0.040044334   -36.57191       0.060064172   -36.511845     -0.062189806   -0.032614174    0.001911358    484.1613       9.2784049      9.1524326     -0.030964207    41114.965    
   2908000   0.040194607   -36.573554      0.060289573   -36.513265     -0.014322917   -0.020052264   -0.024876549    482.46622      9.3479216      9.1694146     -0.019750577    41354.577    
   2910000   0.040219363   -36.574125      0.060326704   -36.513798      0.053149056    0.03228448     0.052268701    481.12954      9.3898131      9.1771269      0.045900746    41459.657    
   2912000   0.03999468    -36.574561      0.059989693   -36.514572      0.012474497    0.011571789   -0.033465621    480.30903      9.4163136      9.1682926     -0.0031397782   41465.808    
   2914000   0.040269159   -36.575861      0.060401396   -36.51546      -0.066027294   -0.018115174    0.006175256    479.70664      9.4419903      9.1590763     -0.025989071    41484.987    
   2916000   0.040007593   -36.576331      0.060009062   -36.516322      0.01703404     0.059580781    0.025441974    479.01561      9.4597038      9.1563632      0.034018932    41490.648    
   2918000   0.039953948   -36.576236      0.059928598   -36.516308      0.042268664   -0.0012509872  -0.04491105     478.33515      9.4785622      9.1558533     -0.0012977911   41511.993    
   2920000   0.040538789   -36.576307      0.060805824   -36.515502      0.0047735271  -0.032524079   -0.011553634    477.72956      9.4801984      9.1544712     -0.013101396    41460.334    
   2922000   0.040207721   -36.576958      0.060309242   -36.516649      0.03488351     0.011924594    0.0034945909   477.52521      9.4757964      9.1513231      0.016767565    41409.111    
   2924000   0.040054666   -36.577008      0.060079668   -36.516929      0.026204342   -0.010727445   -0.031317891    477.458        9.4882324      9.1511429     -0.0052803313   41456.805    
   2926000   0.039915093   -36.577698      0.059870317   -36.517828     -0.037603283   -0.049396915   -0.020801232    477.13242      9.4932253      9.1357347     -0.03593381     41380.544    
   2928000   0.03999713    -36.577361      0.059993368   -36.517368      0.056549671    0.02745146     0.01242593     476.73618      9.5069329      9.133215       0.032142354    41394.46     
   2930000   0.039963965   -36.578053      0.059943622   -36.518109     -0.090880744    0.0065380745  -0.035483326    476.9948       9.5139916      9.128829      -0.039941998    41427.763    
   2932000   0.040129999   -36.577914      0.060192663   -36.517721     -0.089576047   -0.052739322   -0.045262943    476.81171      9.5235039      9.129004      -0.062526104    41454.06     
   2934000   0.039976075   -36.57833       0.059961787   -36.518368     -0.065102934    0.0012681993  -0.022389742    476.80572      9.5301415      9.123344      -0.028741492    41456.712    
   2936000   0.039789347   -36.579592      0.059681705   -36.51991       0.031093266   -0.034449247   -0.016673365    476.36382      9.535958       9.1266395     -0.0066764487   41458.539    
   2938000   0.039901931   -36.57938       0.059850574   -36.519529      0.010059628    0.030349844    0.044089518    476.31509      9.5450569      9.1196161      0.02816633     41461.921    
   2940000   0.040204532   -36.579162      0.060304459   -36.518858     -0.019651529   -0.0019089606   0.025626167    476.15948      9.5575181      9.1182213      0.001355226    41496.139    
   2942000   0.040283934   -36.57992       0.060423557   -36.519497      0.0077762673   0.00097490956 -0.0084024275   475.69489      9.5772019      9.1225202      0.00011624978  41560.615    
   2944000   0.040440889   -36.579987      0.060658981   -36.519328     -0.031290431   -0.031352824    0.012905243    475.59272      9.5832337      9.1179007     -0.016579337    41556.804    
   2946000   0.03989941    -36.579893      0.059846794   -36.520046     -0.043394128    0.032061417   -0.0087942156   475.54965      9.5873517      9.118338      -0.0067089757   41572.889    
   2948000   0.039960115   -36.580215      0.059937848   -36.520278     -0.0039863651   0.0016141102  -0.025678068    475.26625      9.5843461      9.1073896     -0.0093501077   41485.218    
   2950000   0.040065088   -36.579469      0.060095301   -36.519373     -0.032953038   -0.053682003    0.0053443383   475.10246      9.5926307      9.117322      -0.027096901    41552.035    
   2952000   0.039988495   -36.580066      0.059980415   -36.520086     -0.0064907737  -0.046987039   -0.064253431    474.9466       9.5929163      9.1137769     -0.039243748    41523.488    
   2954000   0.040233186   -36.579665      0.060347438   -36.519318      0.10411532     0.0076839226   0.051380224    474.7771       9.5870544      9.1179259      0.054393155    41502.189    
   2956000   0.040272268   -36.58004       0.060406059   -36.519634     -0.072893403   -0.0079604012   0.0076983599   474.33485      9.6032623      9.1149434     -0.024385148    41520.043    
   2958000   0.040537913   -36.5801        0.060804511   -36.519296     -0.042467843    0.032267277    0.020290879    474.32089      9.6118316      9.1098349      0.0033634379   41532.58     
   2960000   0.040547      -36.580935      0.060818141   -36.520116     -0.0184629      0.078058165    0.01632432     473.79096      9.6114621      9.1145432      0.025306528    41506.024    
   2962000   0.040294961   -36.580488      0.060440097   -36.520048     -0.020689982   -0.067212518   -0.015078166    473.79466      9.6138523      9.1171409     -0.034326888    41528.503    
   2964000   0.040058155   -36.580976      0.060084902   -36.520891     -0.063360121   -0.043421408   -0.026211049    473.70081      9.6131505      9.1169139     -0.044330859    41516.212    
   2966000   0.039637706   -36.580814      0.059454254   -36.521359      0.016550728    0.020060186   -0.07776819     473.50648      9.6129003      9.115447      -0.013719092    41491.423    
   2968000   0.040184202   -36.580404      0.060273965   -36.52013       0.0026186045   0.0029183564  -0.012253482    473.37436      9.6212859      9.1206179     -0.0022388404   41539.581    
   2970000   0.039929435   -36.580894      0.05989183    -36.521002     -0.0029603771  -0.01543596    -0.011363834    473.45738      9.6227665      9.1111652     -0.0099200571   41510.193    
   2972000   0.039788344   -36.580872      0.059680201   -36.521191      0.065550553   -0.031052271   -0.013329437    473.22543      9.6160629      9.1152836      0.0070562815   41479.694    
   2974000   0.039767412   -36.58117       0.059648804   -36.521521      0.034423996    0.01857059     0.029315196    472.92291      9.6226893      9.1129344      0.027436594    41471.053    
   2976000   0.040716487   -36.580766      0.061072362   -36.519694      0.042722216   -0.035320453   -0.023547877    473.1656       9.6283117      9.1084648     -0.0053820377   41496.215    
   2978000   0.039918603   -36.581272      0.059875581   -36.521397      0.099193097   -0.01216115    -0.024958037    473.05275      9.6237965      9.1141014      0.020691303    41492.525    
   2980000   0.039571198   -36.58174       0.059354494   -36.522386     -0.0023914615   0.029167137    0.012908547    472.55435      9.6283599      9.11493        0.013228074    41472.233    
   2982000   0.040006787   -36.580852      0.060007853   -36.520845      0.088736222    0.012900152    0.026598629    472.26785      9.6484242      9.1076148      0.042745001    41500.127    
   2984000   0.039905737   -36.58166       0.059856284   -36.521804     -0.027094856   -0.031180727    0.0034471363   472.41807      9.6491828      9.109111      -0.018276149    41523.412    
   2986000   0.03991518    -36.581271      0.059870447   -36.521401     -0.042969471   -0.017282138   -0.015423452    472.30324      9.6522378      9.0952158     -0.025225021    41463.117    
   2988000   0.039968093   -36.581115      0.059949814   -36.521165      0.019089341    0.0072702838   0.07632972     472.28919      9.6544462      9.0990871      0.034229782    41489.021    
   2990000   0.039905473   -36.5814        0.059855888   -36.521544     -0.020299167    0.01751627     0.010073684    472.38005      9.6443814      9.1066393      0.0024302622   41488.149    
   2992000   0.040073342   -36.581402      0.060107682   -36.521295     -0.0049803859  -0.0099575143   0.010957777    472.59574      9.6478849      9.1010156     -0.0013267076   41496.529    
   2994000   0.039967525   -36.580768      0.059948962   -36.520819      0.058532313    0.013559925   -0.014762426    472.40742      9.6427459      9.1071833      0.019109937    41485.995    
   2996000   0.039923054   -36.580731      0.059882257   -36.520848     -8.0881299e-05  0.022812428   -0.051003158    472.46913      9.6523621      9.0938372     -0.0094238705   41471.927    
   2998000   0.040357777   -36.581755      0.060534317   -36.521221     -0.0095437302  -0.048665231   -0.01949018     472.22378      9.6462615      9.1015438     -0.025899714    41459.298    
   3000000   0.040110176   -36.581788      0.06016293    -36.521626      0.0015188578   0.024573891   -0.0087015109   471.9119       9.6418005      9.097544       0.0057970794   41394.556    
   3002000   0.039914792   -36.581662      0.059869865   -36.521792      0.085548358   -0.011794681    0.046501016    472.10374      9.6458125      9.1043401      0.040084898    41459.564    
   3004000   0.039938296   -36.581907      0.05990512    -36.522002      0.017815755   -0.053077231   -0.0096567913   471.96343      9.6583416      9.0986904     -0.014972756    41475.325    
   3006000   0.040181407   -36.581358      0.060269773   -36.521088      0.011377285    0.036614283   -0.0053301453   471.99042      9.6441456      9.1027765      0.014220474    41435.332    
   3008000   0.040231616   -36.581934      0.060345083   -36.521589      0.072787716    0.0079817729   0.011991938    472.07716      9.6460895      9.1059492      0.030920475    41465.747    
   3010000   0.039854191   -36.581681      0.059778968   -36.521902     -0.051433591    0.040785922   -0.0036001611   472.22093      9.6453985      9.0988157     -0.0047492767   41442.913    
   3012000   0.039934672   -36.582052      0.059899685   -36.522153      0.0033796123   0.025298962    0.033322701    472.07872      9.6416642      9.1030398      0.020667092    41433.618    
   3014000   0.0398366     -36.581438      0.059752582   -36.521686      0.017585701    0.016606887    0.012644815    471.98629      9.6627928      9.0981521      0.015612468    41493.994    
   3016000   0.039980227   -36.581778      0.059968015   -36.52181       0.015914353   -0.015977954    0.02077669     471.66597      9.674135       9.0920188      0.0069043629   41486.52     
   3018000   0.040029207   -36.581722      0.060041481   -36.521681     -0.0041299184  -0.03282698    -0.03727355     471.61811      9.6679546      9.109052      -0.024743483    41533.474    
   3020000   0.0399178     -36.581107      0.059874377   -36.521232      0.025681425    0.064564914    0.025095418    471.59851      9.6667757      9.0968263      0.038447252    41470.948    
   3022000   0.040161403   -36.581615      0.060239768   -36.521376     -0.029854824   -0.0032185924  -0.0097335371   471.31178      9.6903377      9.0948942     -0.014268984    41537.93     
   3024000   0.039683541   -36.581167      0.059523003   -36.521644     -0.073647891   -0.041537122   -0.0035323338   471.25458      9.6846335      9.0939302     -0.039572449    41504.042    
   3026000   0.040237636   -36.581724      0.060354113   -36.52137       0.15269063     0.036556923    0.042596177    471.02948      9.6891066      9.0955419      0.077281242    41510.734    
   3028000   0.039879601   -36.581625      0.059817081   -36.521808      0.013020293    0.049090624    0.031270205    471.32745      9.6904448      9.0918251      0.031127041    41525.753    
   3030000   0.040034344   -36.582183      0.060049187   -36.522133      0.015705965    0.016212884    0.028506032    470.55809      9.722725       9.0921107      0.020141627    41597.379    
   3032000   0.039719586   -36.581804      0.059577068   -36.522227     -0.11283741    -0.028310306    0.00097803723  470.5799       9.734175       9.0884588     -0.046723226    41631.568    
   3034000   0.040162143   -36.581572      0.060240878   -36.521331     -0.024091067    0.012866955    0.027498171    470.62871      9.7209388      9.090662       0.0054246864   41589.35     
   3036000   0.040147798   -36.581929      0.060219361   -36.521709      0.021503978   -0.025211136   -0.073345469    470.43683      9.7202219      9.0860128     -0.025684209    41548.068    
   3038000   0.039806063   -36.582079      0.059706779   -36.522373      0.02101159    -0.010675945    0.035041909    470.39012      9.7367562      9.0893287      0.015125851    41629.797    
   3040000   0.040157007   -36.581802      0.060233175   -36.521568     -0.025918736    0.035365457   -0.0065287357   470.06549      9.7457689      9.0902562      0.00097266161  41643.824    
   3042000   0.039658238   -36.581819      0.05948505    -36.522334     -0.13244516     0.0089142715  -0.067996598    470.13802      9.7345502      9.0858658     -0.063842496    41582.211    
   3044000   0.039989334   -36.582216      0.059981674   -36.522234      0.067890095   -0.014812119   -0.0070389256   470.22482      9.7221095      9.0943284      0.01534635     41575.424    
   3046000   0.040209248   -36.581876      0.060311533   -36.521564      0.014854295    0.0018009332  -0.035635796    470.17189      9.7310714      9.0854715     -0.006326856    41568.541    
   3048000   0.040384038   -36.582049      0.060573708   -36.521475      0.00077881219  0.012400361    0.0044388152   470.0828       9.7466149      9.0904612      0.0058726627   41649.912    
   3050000   0.040243432   -36.581845      0.060362806   -36.521482      0.0015509544   0.034866971   -0.0078405375   470.28473      9.7216757      9.0981623      0.0095257959   41596.395    
   3052000   0.039868333   -36.582041      0.059800179   -36.522241     -0.010262558   -0.015230234    0.082157014    470.0986       9.7466317      9.092357       0.018888074    41660.07     
   3054000   0.03990502    -36.58218       0.059855209   -36.522325     -0.018596263   -0.010693864   -0.078463159    469.764        9.7491988      9.0981156     -0.035917762    41667.755    
   3056000   0.039785029   -36.581791      0.059675229   -36.522115      0.048334685    0.068511489    0.097181126    469.74985      9.7509396      9.0912183      0.071342433    41642.348    
   3058000   0.040169755   -36.581887      0.060252296   -36.521635     -0.083328959   -0.0067163069   0.035924166    469.99025      9.753865       9.088438      -0.018040367    41663.413    
   3060000   0.040134188   -36.582738      0.060198947   -36.522539     -0.084212498   -0.035541098   -0.076677573    469.67944      9.7383691      9.1041514     -0.065477057    41641.585    
   3062000   0.040179188   -36.581736      0.060266445   -36.521469      0.021096367    0.067522028    0.0044763271   469.85396      9.7406233      9.10047        0.031031574    41649.852    
   3064000   0.039899468   -36.582645      0.059846881   -36.522799      0.067630777    0.048950854    0.011942099    469.76929      9.7361136      9.105834       0.042841243    41647.6      
   3066000   0.039795324   -36.582696      0.05969067    -36.523006      0.057509622    0.010982775   -0.00092319405  469.89346      9.739087       9.106225       0.022523068    41673.121    
   3068000   0.039752284   -36.582759      0.059626113   -36.523133     -0.071693159   -0.02666163    -0.047504061    469.72706      9.7539619      9.1015017     -0.048619617    41700.348    
   3070000   0.04009372    -36.583183      0.060138248   -36.523045     -0.060317937   -0.017679311   -0.045050369    469.27975      9.7704002      9.1107966     -0.041015872    41773.467    
   3072000   0.039935539   -36.58258       0.059900985   -36.52268       0.02204254     0.0070642446  -0.0096907658   469.57517      9.7652347      9.1085509      0.0064720064   41767.367    
   3074000   0.039774635   -36.582476      0.059659638   -36.522816      0.02839958    -0.02831459    -0.055358283    469.45845      9.7565275      9.1117276     -0.018424431    41734.302    
   3076000   0.039843722   -36.582187      0.059763265   -36.522424     -0.076972919    0.032515469   -0.035393662    469.39461      9.7824858      9.1050432     -0.026617037    41808.957    
   3078000   0.039943164   -36.582759      0.059912422   -36.522846     -0.062742402   -0.015950747   -0.040075973    469.53679      9.776748       9.1049516     -0.039589708    41796.67     
   3080000   0.040431722   -36.582939      0.06064523    -36.522294     -0.085192704    0.013709791   -0.015661075    469.60679      9.7509777      9.112638      -0.029047996    41727.912    
   3082000   0.040191957   -36.582788      0.060285598   -36.522502      0.029500251    0.01288832     0.040184526    469.43015      9.7807767      9.0966976      0.027524366    41766.5      
   3084000   0.039864155   -36.58295       0.059793913   -36.523156      0.14529449    -0.002899428    0.024665752    469.84303      9.7724535      9.1058099      0.055686939    41809.5      
   3086000   0.040040634   -36.5827        0.060058621   -36.522642      0.061730379    0.029807274   -0.040128676    469.81376      9.7681551      9.1040616      0.017136326    41780.484    
   3088000   0.040200119   -36.583204      0.06029784    -36.522906     -0.012556468    0.014320227    0.027409635    469.60544      9.7724093      9.1119171      0.009724465    41816.197    
   3090000   0.039550391   -36.582202      0.059323285   -36.522879      0.0028658227  -0.008711215   -0.00896897     469.52749      9.7933529      9.1002139     -0.0049381208   41845.044    
   3092000   0.040112475   -36.583219      0.060166379   -36.523053      0.081059293    0.0036512405   0.037714556    469.35713      9.7877882      9.1055256      0.040808363    41830.495    
   3094000   0.039644953   -36.583139      0.059465123   -36.523674      0.0064766835  -0.010966436   -0.0021150462   469.58257      9.7839592      9.1049138     -0.0022015994   41831.404    
   3096000   0.04005018    -36.583196      0.06007294    -36.523123      0.053709756   -0.032869175   -0.01320905     469.29364      9.7787848      9.1029221      0.0025438434   41774.415    
   3098000   0.040439246   -36.582711      0.060656516   -36.522054      0.01860552    -0.01650252     0.034373068    469.33376      9.7802387      9.109022       0.012158689    41812.198    
   3100000   0.040018243   -36.583135      0.060025036   -36.52311       0.0007277981  -0.015651465   -0.046201331    469.42969      9.7749797      9.1059113     -0.020374999    41783.983    
Loop time of 1904.61 on 1 procs for 200000 steps with 25781 atoms

Performance: 9072.743 tau/day, 105.009 timesteps/s, 2.707 Matom-step/s
100.0% CPU use with 1 MPI tasks x 1 OpenMP threads

MPI task timing breakdown:
Section |  min time  |  avg time  |  max time  |%varavg| %total
---------------------------------------------------------------
Pair    | 1665.7     | 1665.7     | 1665.7     |   0.0 | 87.46
Neigh   | 25.39      | 25.39      | 25.39      |   0.0 |  1.33
Comm    | 37.053     | 37.053     | 37.053     |   0.0 |  1.95
Output  | 0.18037    | 0.18037    | 0.18037    |   0.0 |  0.01
Modify  | 155.38     | 155.38     | 155.38     |   0.0 |  8.16
Other   |            | 20.93      |            |       |  1.10

Nlocal:          25781 ave       25781 max       25781 min
Histogram: 1 0 0 0 0 0 0 0 0 0
Nghost:          48083 ave       48083 max       48083 min
Histogram: 1 0 0 0 0 0 0 0 0 0
Neighs:         461594 ave      461594 max      461594 min
Histogram: 1 0 0 0 0 0 0 0 0 0

Total # of neighbors = 461594
Ave neighs/atom = 17.904426
Neighbor list builds = 873
Dangerous builds = 0
unfix          1

write_data    resultingsilk.data
System init for write_data ...
Generated 0 of 36 mixed pair_coeff terms from geometric mixing rule
WARNING: Not all mixed pair coeffs generated from mixing. Use write_data with 'pair ij' option to store all pair coeffs. (src/write_data.cpp:364)
Total wall time: 8:45:30
